
     Program PWSCF v.7.5 starts on 27May2026 at 11:24: 4 

     This program is part of the open-source Quantum ESPRESSO suite
     for quantum simulation of materials; please cite
         "P. Giannozzi et al., J. Phys.:Condens. Matter 21 395502 (2009);
         "P. Giannozzi et al., J. Phys.:Condens. Matter 29 465901 (2017);
         "P. Giannozzi et al., J. Chem. Phys. 152 154105 (2020);
          URL http://www.quantum-espresso.org", 
     in publications or presentations arising from this work. More details at
     http://www.quantum-espresso.org/quote

     Parallel version (MPI & OpenMP), running on       4 processor cores
     Number of MPI processes:                 4
     Threads/MPI process:                     1

     MPI processes distributed on     1 nodes
     6531 MiB available memory on the printing compute node when the environment starts

     Reading input from nscf_Rb_VO.in

     Current dimensions of program PWSCF are:
     Max number of different atomic species (ntypx) = 10
     Max number of k-points (npk) =  40000
     Max angular momentum in pseudopotentials (lmaxx) =  4
     file Ti.pbe-spn-kjpaw_psl.1.0.0.UPF: wavefunction(s)  3S 3P 3D renormalized
     file O.pbe-n-kjpaw_psl.1.0.0.UPF: wavefunction(s)  2S 2P renormalized
     file Rb.pbe-spn-kjpaw_psl.1.0.0.UPF: wavefunction(s)  4S renormalized

     Atomic positions and unit cell read from directory:
     ./Rb_VO.save/

     Message from routine setup:
     using ibrav=0 with symmetry is DISCOURAGED, use correct ibrav instead

     R & G space division:  proc/nbgrp/npool/nimage =       4
     Subspace diagonalization in iterative solution of the eigenvalue problem:
     one sub-group per band group will be used
     custom distributed-memory algorithm (size of sub-group:  2*  2 procs)


     Parallelization info
     --------------------
     sticks:   dense  smooth     PW     G-vecs:    dense   smooth      PW
     Min        1324     659    187                92968    32825    4849
     Max        1325     660    188                92973    32827    4852
     Sum        5297    2637    749               371881   131303   19403

     Using Slab Decomposition



     bravais-lattice index     =            0
     lattice parameter (alat)  =      14.4306  a.u.
     unit-cell volume          =    3848.2146 (a.u.)^3
     number of atoms/cell      =           47
     number of atomic types    =            3
     number of electrons       =       375.00
     number of Kohn-Sham states=          226
     kinetic-energy cutoff     =      40.0000  Ry
     charge density cutoff     =     320.0000  Ry
     Exchange-correlation= SLA  PW   PBX  PBC
                           (   1   4   3   4   0   0   0)
     Hubbard projectors: ortho-atomic
     Hubbard parameters of DFT+U (Dudarev formulation) in eV:
     U(Ti-3d) =  3.5000

     Internal variables: lda_plus_u =T, lda_plus_u_kind = 0

     Internal variables: orbital_resolved =F, hub_pot_fix =F, apply_U = F

     celldm(1)=  14.430553  celldm(2)=   0.000000  celldm(3)=   0.000000
     celldm(4)=   0.000000  celldm(5)=   0.000000  celldm(6)=   0.000000

     crystal axes: (cart. coord. in units of alat)
               a(1) = (   1.000000   0.000000   0.000000 )  
               a(2) = (   0.000000   1.000000   0.000000 )  
               a(3) = (   0.000000   0.000000   1.280591 )  

     reciprocal axes: (cart. coord. in units 2 pi/alat)
               b(1) = (  1.000000  0.000000  0.000000 )  
               b(2) = (  0.000000  1.000000  0.000000 )  
               b(3) = (  0.000000  0.000000  0.780890 )  


     PseudoPot. # 1 for Ti read from file:
     /home/ghadimi/tio2_vo/pseudo/Ti.pbe-spn-kjpaw_psl.1.0.0.UPF
     MD5 check sum: 01f69b0d8ba4438b2e03ac6ea4af1c0b
     Pseudo is Projector augmented-wave + core cor, Zval = 12.0
     Generated using &quot;atomic&quot; code by A. Dal Corso  v.6.2.2
     Shape of augmentation charge: PSQ
     Using radial grid of 1177 points,  6 beta functions with: 
                l(1) =   0
                l(2) =   0
                l(3) =   1
                l(4) =   1
                l(5) =   2
                l(6) =   2
     Q(r) pseudized with 0 coefficients 


     PseudoPot. # 2 for O  read from file:
     /home/ghadimi/tio2_vo/pseudo/O.pbe-n-kjpaw_psl.1.0.0.UPF
     MD5 check sum: e99d9cef9b487d1ca56f5b95ecd0fd7a
     Pseudo is Projector augmented-wave + core cor, Zval =  6.0
     Generated using &quot;atomic&quot; code by A. Dal Corso  v.6.3
     Shape of augmentation charge: PSQ
     Using radial grid of 1095 points,  4 beta functions with: 
                l(1) =   0
                l(2) =   0
                l(3) =   1
                l(4) =   1
     Q(r) pseudized with 0 coefficients 


     PseudoPot. # 3 for Rb read from file:
     /home/ghadimi/tio2_vo/pseudo/Rb.pbe-spn-kjpaw_psl.1.0.0.UPF
     MD5 check sum: a11e6fb9d11e64d6427b9eb26aa4a0b1
     Pseudo is Projector augmented-wave + core cor, Zval =  9.0
     Generated using &quot;atomic&quot; code by A. Dal Corso  v.6.2.2
     Shape of augmentation charge: PSQ
     Using radial grid of 1219 points,  6 beta functions with: 
                l(1) =   0
                l(2) =   0
                l(3) =   1
                l(4) =   1
                l(5) =   2
                l(6) =   2
     Q(r) pseudized with 0 coefficients 


     atomic species   valence    mass     pseudopotential
     Ti               12.00    47.86700     Ti( 1.00)
     O                 6.00    15.99900     O ( 1.00)
     Rb                9.00    85.46800     Rb( 1.00)

     Starting magnetic structure 
     atomic species   magnetization
     Ti              0.000
     O               0.000
     Rb              0.000

      2 Sym. Ops. (no inversion) found ( 1 have fractional translation)


                                    s                        frac. trans.

      isym =  1     identity                                     

 cryst.   s( 1) = (     1          0          0      )
                  (     0          1          0      )
                  (     0          0          1      )

 cart.    s( 1) = (  1.0000000  0.0000000  0.0000000 )
                  (  0.0000000  1.0000000  0.0000000 )
                  (  0.0000000  0.0000000  1.0000000 )


      isym =  2     inv. 180 deg rotation - cart. axis [0,1,0]   

 cryst.   s( 2) = (     1          0          0      )    f =(  0.0000000 )
                  (     0         -1          0      )       (  0.4999997 )
                  (     0          0          1      )       (  0.0000000 )

 cart.    s( 2) = (  1.0000000  0.0000000  0.0000000 )    f =(  0.0000000 )
                  (  0.0000000 -1.0000000  0.0000000 )       (  0.4999997 )
                  (  0.0000000  0.0000000  1.0000000 )       (  0.0000000 )


   Cartesian axes

     site n.     atom                  positions (alat units)
         1        Ti     tau(   1) = (   0.0192614  -0.0079798  -0.0109625  )
         2        Ti     tau(   2) = (  -0.0100196   0.2500001   0.2773238  )
         3        Rb     tau(   3) = (   0.0847532   0.2500001   0.6630171  )
         4        Ti     tau(   4) = (   0.2742449  -0.0040436   0.9540823  )
         5        O      tau(   5) = (   0.0043807  -0.0046816   0.2475350  )
         6        O      tau(   6) = (   0.0062600   0.0140311   1.0092247  )
         7        O      tau(   7) = (  -0.0169486   0.2500001   0.0343722  )
         8        O      tau(   8) = (   0.2400098   0.2500001   0.9606759  )
         9        O      tau(   9) = (   0.2245679   0.2500001   0.3369768  )
        10        O      tau(  10) = (   0.2616440  -0.0115767   1.2298980  )
        11        O      tau(  11) = (   0.2804084  -0.0144999   0.7134623  )
        12        Ti     tau(  12) = (   0.0192614   0.5079801  -0.0109625  )
        13        Ti     tau(  13) = (  -0.0010653   0.7500004   0.3177020  )
        14        Ti     tau(  14) = (   0.2495558   0.7500004   0.6533193  )
        15        Ti     tau(  15) = (   0.2742449   0.5040438   0.9540823  )
        16        O      tau(  16) = (   0.0043807   0.5046819   0.2475350  )
        17        O      tau(  17) = (   0.0062600   0.4859692   1.0092247  )
        18        O      tau(  18) = (   0.0051604   0.7500004   0.5823149  )
        19        O      tau(  19) = (  -0.0054144   0.7500004   0.0441415  )
        20        O      tau(  20) = (   0.2164885   0.7500004   0.9248026  )
        21        O      tau(  21) = (   0.2522223   0.7500004   0.3789559  )
        22        O      tau(  22) = (   0.2616440   0.5115770   1.2298980  )
        23        O      tau(  23) = (   0.2804084   0.5145002   0.7134623  )
        24        Ti     tau(  24) = (   0.5159482   0.0006237   0.0076659  )
        25        Ti     tau(  25) = (   0.4595338   0.2500001   0.3231062  )
        26        Ti     tau(  26) = (   0.6934561   0.2500001   0.6412324  )
        27        Ti     tau(  27) = (   0.7617062   0.0010005   0.9582745  )
        28        O      tau(  28) = (   0.5144210   0.0043896   0.2705994  )
        29        O      tau(  29) = (   0.5110543   0.0009208   1.0176522  )
        30        O      tau(  30) = (   0.4763191   0.2500001   0.5696604  )
        31        O      tau(  31) = (   0.5039900   0.2500001   0.0591563  )
        32        O      tau(  32) = (   0.7386274   0.2500001   0.9023393  )
        33        O      tau(  33) = (   0.7888331   0.2500001   0.4138028  )
        34        O      tau(  34) = (   0.7553392  -0.0095954   1.2182301  )
        35        O      tau(  35) = (   0.7621518   0.0053439   0.6923336  )
        36        Ti     tau(  36) = (   0.5159482   0.4993765   0.0076659  )
        37        Ti     tau(  37) = (   0.4943175   0.7500004   0.3237062  )
        38        Ti     tau(  38) = (   0.7496905   0.7500004   0.6373203  )
        39        Ti     tau(  39) = (   0.7617062   0.4989998   0.9582745  )
        40        O      tau(  40) = (   0.5144210   0.4956107   0.2705994  )
        41        O      tau(  41) = (   0.5110543   0.4990795   1.0176522  )
        42        O      tau(  42) = (   0.5075548   0.7500004   0.5844025  )
        43        O      tau(  43) = (   0.5045862   0.7500004   0.0675249  )
        44        O      tau(  44) = (   0.7535853   0.7500004   0.9000573  )
        45        O      tau(  45) = (   0.7565656   0.7500004   0.3778417  )
        46        O      tau(  46) = (   0.7553392   0.5095957   1.2182301  )
        47        O      tau(  47) = (   0.7621518   0.4946564   0.6923336  )

   Crystallographic axes

     site n.     atom                  positions (cryst. coord.)
         1        Ti     tau(   1) = (  0.0192614 -0.0079798 -0.0085605  )
         2        Ti     tau(   2) = ( -0.0100196  0.2500001  0.2165593  )
         3        Rb     tau(   3) = (  0.0847532  0.2500001  0.5177432  )
         4        Ti     tau(   4) = (  0.2742449 -0.0040436  0.7450330  )
         5        O      tau(   5) = (  0.0043807 -0.0046816  0.1932975  )
         6        O      tau(   6) = (  0.0062600  0.0140311  0.7880932  )
         7        O      tau(   7) = ( -0.0169486  0.2500001  0.0268409  )
         8        O      tau(   8) = (  0.2400098  0.2500001  0.7501819  )
         9        O      tau(   9) = (  0.2245679  0.2500001  0.2631417  )
        10        O      tau(  10) = (  0.2616440 -0.0115767  0.9604146  )
        11        O      tau(  11) = (  0.2804084 -0.0144999  0.5571353  )
        12        Ti     tau(  12) = (  0.0192614  0.5079801 -0.0085605  )
        13        Ti     tau(  13) = ( -0.0010653  0.7500004  0.2480902  )
        14        Ti     tau(  14) = (  0.2495558  0.7500004  0.5101703  )
        15        Ti     tau(  15) = (  0.2742449  0.5040438  0.7450330  )
        16        O      tau(  16) = (  0.0043807  0.5046819  0.1932975  )
        17        O      tau(  17) = (  0.0062600  0.4859692  0.7880932  )
        18        O      tau(  18) = (  0.0051604  0.7500004  0.4547237  )
        19        O      tau(  19) = ( -0.0054144  0.7500004  0.0344696  )
        20        O      tau(  20) = (  0.2164885  0.7500004  0.7221688  )
        21        O      tau(  21) = (  0.2522223  0.7500004  0.2959227  )
        22        O      tau(  22) = (  0.2616440  0.5115770  0.9604146  )
        23        O      tau(  23) = (  0.2804084  0.5145002  0.5571353  )
        24        Ti     tau(  24) = (  0.5159482  0.0006237  0.0059862  )
        25        Ti     tau(  25) = (  0.4595338  0.2500001  0.2523103  )
        26        Ti     tau(  26) = (  0.6934561  0.2500001  0.5007317  )
        27        Ti     tau(  27) = (  0.7617062  0.0010005  0.7483066  )
        28        O      tau(  28) = (  0.5144210  0.0043896  0.2113082  )
        29        O      tau(  29) = (  0.5110543  0.0009208  0.7946741  )
        30        O      tau(  30) = (  0.4763191  0.2500001  0.4448419  )
        31        O      tau(  31) = (  0.5039900  0.2500001  0.0461946  )
        32        O      tau(  32) = (  0.7386274  0.2500001  0.7046275  )
        33        O      tau(  33) = (  0.7888331  0.2500001  0.3231343  )
        34        O      tau(  34) = (  0.7553392 -0.0095954  0.9513033  )
        35        O      tau(  35) = (  0.7621518  0.0053439  0.5406362  )
        36        Ti     tau(  36) = (  0.5159482  0.4993765  0.0059862  )
        37        Ti     tau(  37) = (  0.4943175  0.7500004  0.2527788  )
        38        Ti     tau(  38) = (  0.7496905  0.7500004  0.4976768  )
        39        Ti     tau(  39) = (  0.7617062  0.4989998  0.7483066  )
        40        O      tau(  40) = (  0.5144210  0.4956107  0.2113082  )
        41        O      tau(  41) = (  0.5110543  0.4990795  0.7946741  )
        42        O      tau(  42) = (  0.5075548  0.7500004  0.4563539  )
        43        O      tau(  43) = (  0.5045862  0.7500004  0.0527295  )
        44        O      tau(  44) = (  0.7535853  0.7500004  0.7028454  )
        45        O      tau(  45) = (  0.7565656  0.7500004  0.2950527  )
        46        O      tau(  46) = (  0.7553392  0.5095957  0.9513033  )
        47        O      tau(  47) = (  0.7621518  0.4946564  0.5406362  )

     number of k points=     8 (tetrahedron method)
                       cart. coord. in units 2pi/alat
        k(    1) = (   0.0000000   0.0000000   0.0000000), wk =   0.1250000
        k(    2) = (   0.0000000   0.0000000  -0.3904448), wk =   0.1250000
        k(    3) = (   0.0000000  -0.5000000   0.0000000), wk =   0.1250000
        k(    4) = (   0.0000000  -0.5000000  -0.3904448), wk =   0.1250000
        k(    5) = (  -0.5000000  -0.5000000   0.0000000), wk =   0.1250000
        k(    6) = (  -0.5000000  -0.5000000  -0.3904448), wk =   0.1250000
        k(    7) = (  -0.5000000   0.0000000   0.0000000), wk =   0.1250000
        k(    8) = (  -0.5000000   0.0000000   0.3904448), wk =   0.1250000

                       cryst. coord.
        k(    1) = (   0.0000000   0.0000000   0.0000000), wk =   0.1250000
        k(    2) = (   0.0000000   0.0000000  -0.5000000), wk =   0.1250000
        k(    3) = (   0.0000000  -0.5000000   0.0000000), wk =   0.1250000
        k(    4) = (   0.0000000  -0.5000000  -0.5000000), wk =   0.1250000
        k(    5) = (  -0.5000000  -0.5000000   0.0000000), wk =   0.1250000
        k(    6) = (  -0.5000000  -0.5000000  -0.5000000), wk =   0.1250000
        k(    7) = (  -0.5000000   0.0000000   0.0000000), wk =   0.1250000
        k(    8) = (  -0.5000000   0.0000000   0.5000000), wk =   0.1250000

     Dense  grid:   371881 G-vectors     FFT dimensions: (  90,  90, 108)

     Smooth grid:   131303 G-vectors     FFT dimensions: (  60,  60,  75)

     Dynamical RAM for                 wfc:      14.17 MB

     Dynamical RAM for     wfc (w. buffer):      14.17 MB

     Dynamical RAM for             U proj.:       4.70 MB

     Dynamical RAM for  U proj. (w. buff.):       4.70 MB

     Dynamical RAM for           str. fact:       4.26 MB

     Dynamical RAM for           local pot:       0.00 MB

     Dynamical RAM for          nlocal pot:      33.61 MB

     Dynamical RAM for                qrad:       4.31 MB

     Dynamical RAM for          rho,v,vnew:      18.52 MB

     Dynamical RAM for           G-vectors:       5.57 MB

     Dynamical RAM for          h,s,v(r/c):       0.58 MB

     Dynamical RAM for          <psi|beta>:       1.85 MB

     Dynamical RAM for      wfcinit/wfcrot:      29.52 MB

     Dynamical RAM for           addusdens:     309.26 MB

     Estimated static dynamical RAM per process >     100.83 MB

     Estimated max dynamical RAM per process >     410.09 MB

     Estimated total dynamical RAM >       1.60 GB

     Check: negative core charge=   -0.000010
     Generating pointlists ...
     new r_m :   0.0943 (alat units)  1.3609 (a.u.) for type    1
     new r_m :   0.0943 (alat units)  1.3609 (a.u.) for type    2
     new r_m :   0.1373 (alat units)  1.9813 (a.u.) for type    3

     The potential is recalculated from file :
     ./Rb_VO.save/charge-density


     HUBBARD ENERGY =    3.2006  (Ry)

     STARTING HUBBARD OCCUPATIONS:

     =================== HUBBARD OCCUPATIONS ===================
     ------------------------ ATOM    1 ------------------------
     Tr[ns(  1)] (up, down, total) =   1.07191  1.07509  2.14700
     Atomic magnetic moment for atom   1 =  -0.00318
     SPIN  1
     eigenvalues:
       0.146  0.169  0.181  0.283  0.293
     eigenvectors (columns):
       0.002  0.003 -0.000  0.551 -0.834
       0.063  0.998 -0.004  0.023  0.019
       0.886 -0.053  0.457 -0.050 -0.031
       0.046 -0.033  0.037  0.832  0.550
      -0.457  0.033  0.889 -0.008 -0.007
     occupation matrix ns (before diag.):
       0.290 -0.001  0.000 -0.005  0.000
      -0.001  0.169 -0.002  0.003  0.001
       0.000 -0.002  0.154 -0.008  0.014
      -0.005  0.003 -0.008  0.285 -0.000
       0.000  0.001  0.014 -0.000  0.174
     SPIN  2
     eigenvalues:
       0.147  0.170  0.181  0.283  0.294
     eigenvectors (columns):
      -0.006 -0.006 -0.007  0.531  0.847
       0.046 -0.998  0.014  0.023 -0.020
       0.897  0.046  0.435 -0.042  0.037
       0.045  0.032  0.033  0.846 -0.530
      -0.436 -0.008  0.900 -0.006  0.008
     occupation matrix ns (before diag.):
       0.291 -0.001  0.001 -0.005  0.000
      -0.001  0.170 -0.001  0.003  0.001
       0.001 -0.001  0.154 -0.007  0.013
      -0.005  0.003 -0.007  0.286 -0.000
       0.000  0.001  0.013 -0.000  0.174
     ------------------------ ATOM    2 ------------------------
     Tr[ns(  2)] (up, down, total) =   1.11436  1.11393  2.22829
     Atomic magnetic moment for atom   2 =   0.00043
     SPIN  1
     eigenvalues:
       0.141  0.176  0.240  0.269  0.289
     eigenvectors (columns):
       0.000 -0.000 -0.259  0.796 -0.547
       0.000 -0.000  0.957  0.134 -0.258
       0.904  0.428 -0.000  0.000 -0.000
      -0.000  0.000 -0.132 -0.591 -0.796
      -0.428  0.904  0.000  0.000  0.000
     occupation matrix ns (before diag.):
       0.273  0.010  0.000  0.008  0.000
       0.010  0.244  0.000  0.008  0.000
       0.000  0.000  0.147  0.000  0.014
       0.008  0.008  0.000  0.281 -0.000
       0.000  0.000  0.014 -0.000  0.170
     SPIN  2
     eigenvalues:
       0.141  0.176  0.240  0.268  0.288
     eigenvectors (columns):
       0.000 -0.000 -0.248  0.814  0.525
       0.000 -0.000  0.959  0.130  0.251
       0.903  0.429 -0.000  0.000  0.000
      -0.000  0.000 -0.136 -0.566  0.813
      -0.429  0.903  0.000  0.000 -0.000
     occupation matrix ns (before diag.):
       0.272  0.009  0.000  0.008  0.000
       0.009  0.244  0.000  0.008  0.000
       0.000  0.000  0.147  0.000  0.014
       0.008  0.008  0.000  0.281 -0.000
       0.000  0.000  0.014 -0.000  0.170
     ------------------------ ATOM    4 ------------------------
     Tr[ns(  4)] (up, down, total) =   1.07645  1.10945  2.18590
     Atomic magnetic moment for atom   4 =  -0.03300
     SPIN  1
     eigenvalues:
       0.158  0.170  0.184  0.267  0.297
     eigenvectors (columns):
      -0.005 -0.019 -0.090  0.096 -0.991
      -0.130  0.383  0.895  0.171 -0.072
      -0.903 -0.423  0.057 -0.038  0.004
       0.001  0.101  0.135 -0.980 -0.109
      -0.408  0.814 -0.411  0.024  0.026
     occupation matrix ns (before diag.):
       0.296  0.010 -0.001  0.004 -0.003
       0.010  0.184 -0.001 -0.014 -0.006
      -0.001 -0.001  0.160  0.004 -0.005
       0.004 -0.014  0.004  0.265 -0.003
      -0.003 -0.006 -0.005 -0.003  0.171
     SPIN  2
     eigenvalues:
       0.163  0.180  0.191  0.273  0.301
     eigenvectors (columns):
      -0.004 -0.060  0.073  0.179 -0.979
      -0.163  0.773 -0.587  0.167 -0.060
      -0.932 -0.316 -0.170 -0.044  0.002
       0.009  0.144 -0.070 -0.968 -0.191
      -0.323  0.528  0.785  0.013  0.030
     occupation matrix ns (before diag.):
       0.299  0.009 -0.001  0.006 -0.003
       0.009  0.187 -0.002 -0.013 -0.006
      -0.001 -0.002  0.166  0.004 -0.007
       0.006 -0.013  0.004  0.272 -0.002
      -0.003 -0.006 -0.007 -0.002  0.186
     ------------------------ ATOM   12 ------------------------
     Tr[ns( 12)] (up, down, total) =   1.07191  1.07509  2.14700
     Atomic magnetic moment for atom  12 =  -0.00318
     SPIN  1
     eigenvalues:
       0.146  0.169  0.181  0.283  0.293
     eigenvectors (columns):
       0.002 -0.003  0.000  0.551 -0.834
       0.063 -0.998  0.004  0.023  0.019
      -0.886 -0.053  0.457  0.050  0.031
       0.046  0.033 -0.037  0.832  0.550
       0.457  0.033  0.889  0.008  0.007
     occupation matrix ns (before diag.):
       0.290 -0.001 -0.000 -0.005 -0.000
      -0.001  0.169  0.002  0.003 -0.001
      -0.000  0.002  0.154  0.008  0.014
      -0.005  0.003  0.008  0.285  0.000
      -0.000 -0.001  0.014  0.000  0.174
     SPIN  2
     eigenvalues:
       0.147  0.170  0.181  0.283  0.294
     eigenvectors (columns):
      -0.006  0.006  0.007  0.531  0.847
       0.046  0.998 -0.014  0.023 -0.020
      -0.897  0.046  0.435  0.042 -0.037
       0.045 -0.032 -0.033  0.846 -0.530
       0.436 -0.008  0.900  0.006 -0.008
     occupation matrix ns (before diag.):
       0.291 -0.001 -0.001 -0.005 -0.000
      -0.001  0.170  0.001  0.003 -0.001
      -0.001  0.001  0.154  0.007  0.013
      -0.005  0.003  0.007  0.286  0.000
      -0.000 -0.001  0.013  0.000  0.174
     ------------------------ ATOM   13 ------------------------
     Tr[ns( 13)] (up, down, total) =   1.06003  1.06137  2.12140
     Atomic magnetic moment for atom  13 =  -0.00135
     SPIN  1
     eigenvalues:
       0.164  0.164  0.181  0.267  0.284
     eigenvectors (columns):
       0.048  0.000 -0.000 -0.801  0.597
       0.997  0.000  0.000  0.003 -0.077
       0.000 -0.471  0.882 -0.000 -0.000
      -0.060 -0.000  0.000 -0.599 -0.799
      -0.000  0.882  0.471  0.000  0.000
     occupation matrix ns (before diag.):
       0.273 -0.006  0.000 -0.008  0.000
      -0.006  0.165 -0.000  0.007  0.000
       0.000 -0.000  0.177  0.000  0.007
      -0.008  0.007  0.000  0.278 -0.000
       0.000  0.000  0.007 -0.000  0.168
     SPIN  2
     eigenvalues:
       0.164  0.164  0.181  0.268  0.285
     eigenvectors (columns):
      -0.000 -0.048 -0.000 -0.789 -0.613
      -0.000 -0.997  0.000  0.001  0.077
      -0.470  0.000  0.883 -0.000  0.000
       0.000  0.060  0.000 -0.615  0.786
       0.883 -0.000  0.470  0.000 -0.000
     occupation matrix ns (before diag.):
       0.274 -0.006  0.000 -0.008  0.000
      -0.006  0.165 -0.000  0.007  0.000
       0.000 -0.000  0.177  0.000  0.007
      -0.008  0.007  0.000  0.278 -0.000
       0.000  0.000  0.007 -0.000  0.168
     ------------------------ ATOM   14 ------------------------
     Tr[ns( 14)] (up, down, total) =   1.08265  1.08345  2.16611
     Atomic magnetic moment for atom  14 =  -0.00080
     SPIN  1
     eigenvalues:
       0.153  0.166  0.204  0.253  0.307
     eigenvectors (columns):
       0.161 -0.000 -0.000 -0.846  0.508
      -0.987 -0.000 -0.000 -0.154  0.056
       0.000  0.651 -0.759  0.000  0.000
      -0.031  0.000  0.000  0.510  0.859
      -0.000  0.759  0.651 -0.000 -0.000
     occupation matrix ns (before diag.):
       0.264  0.017  0.000  0.024  0.000
       0.017  0.156 -0.000 -0.000  0.000
       0.000 -0.000  0.188  0.000 -0.019
       0.024 -0.000  0.000  0.292 -0.000
       0.000  0.000 -0.019 -0.000  0.182
     SPIN  2
     eigenvalues:
       0.153  0.166  0.205  0.254  0.306
     eigenvectors (columns):
       0.166 -0.000 -0.000 -0.849  0.502
      -0.986 -0.000 -0.000 -0.155  0.063
       0.000  0.648 -0.762  0.000  0.000
      -0.025  0.000  0.000  0.505  0.863
       0.000  0.762  0.648 -0.000 -0.000
     occupation matrix ns (before diag.):
       0.264  0.018  0.000  0.023  0.000
       0.018  0.156 -0.000  0.000  0.000
       0.000 -0.000  0.189  0.000 -0.019
       0.023  0.000  0.000  0.292 -0.000
       0.000  0.000 -0.019 -0.000  0.182
     ------------------------ ATOM   15 ------------------------
     Tr[ns( 15)] (up, down, total) =   1.07645  1.10945  2.18590
     Atomic magnetic moment for atom  15 =  -0.03300
     SPIN  1
     eigenvalues:
       0.158  0.170  0.184  0.267  0.297
     eigenvectors (columns):
      -0.005  0.019  0.090  0.096 -0.991
      -0.130 -0.383 -0.895  0.171 -0.072
       0.903 -0.423  0.057  0.038 -0.004
       0.001 -0.101 -0.135 -0.980 -0.109
       0.408  0.814 -0.411 -0.024 -0.026
     occupation matrix ns (before diag.):
       0.296  0.010  0.001  0.004  0.003
       0.010  0.184  0.001 -0.014  0.006
       0.001  0.001  0.160 -0.004 -0.005
       0.004 -0.014 -0.004  0.265  0.003
       0.003  0.006 -0.005  0.003  0.171
     SPIN  2
     eigenvalues:
       0.163  0.180  0.191  0.273  0.301
     eigenvectors (columns):
       0.004  0.060  0.073  0.179 -0.979
       0.163 -0.773 -0.587  0.167 -0.060
      -0.932 -0.316  0.170  0.044 -0.002
      -0.009 -0.144 -0.070 -0.968 -0.191
      -0.323  0.528 -0.785 -0.013 -0.030
     occupation matrix ns (before diag.):
       0.299  0.009  0.001  0.006  0.003
       0.009  0.187  0.002 -0.013  0.006
       0.001  0.002  0.166 -0.004 -0.007
       0.006 -0.013 -0.004  0.272  0.002
       0.003  0.006 -0.007  0.002  0.186
     ------------------------ ATOM   24 ------------------------
     Tr[ns( 24)] (up, down, total) =   1.06178  1.06354  2.12532
     Atomic magnetic moment for atom  24 =  -0.00176
     SPIN  1
     eigenvalues:
       0.147  0.170  0.183  0.279  0.283
     eigenvectors (columns):
      -0.006 -0.032  0.064  0.964  0.256
       0.111 -0.511  0.843 -0.094  0.082
      -0.866 -0.470 -0.169 -0.004 -0.021
      -0.026  0.040 -0.093 -0.248  0.963
       0.487 -0.718 -0.498  0.012 -0.002
     occupation matrix ns (before diag.):
       0.279 -0.007 -0.001  0.002  0.001
      -0.007  0.180  0.000  0.010 -0.007
      -0.001  0.000  0.153 -0.002  0.011
       0.002  0.010 -0.002  0.281  0.000
       0.001 -0.007  0.011  0.000  0.168
     SPIN  2
     eigenvalues:
       0.147  0.170  0.183  0.280  0.283
     eigenvectors (columns):
      -0.004 -0.032  0.064  0.952  0.296
       0.086 -0.533  0.832 -0.097  0.077
      -0.880 -0.436 -0.186  0.001 -0.024
      -0.027  0.041 -0.093 -0.289  0.952
       0.466 -0.723 -0.510  0.013 -0.002
     occupation matrix ns (before diag.):
       0.280 -0.007 -0.001  0.001  0.001
      -0.007  0.181 -0.001  0.010 -0.007
      -0.001 -0.001  0.153 -0.003  0.011
       0.001  0.010 -0.003  0.282  0.000
       0.001 -0.007  0.011  0.000  0.168
     ------------------------ ATOM   25 ------------------------
     Tr[ns( 25)] (up, down, total) =   1.08603  1.08688  2.17291
     Atomic magnetic moment for atom  25 =  -0.00085
     SPIN  1
     eigenvalues:
       0.153  0.178  0.200  0.267  0.288
     eigenvectors (columns):
      -0.000  0.047 -0.000 -0.007  0.999
      -0.000  0.998  0.000 -0.036 -0.047
      -0.937 -0.000  0.348 -0.000  0.000
       0.000 -0.036  0.000 -0.999 -0.005
       0.348 -0.000  0.937  0.000  0.000
     occupation matrix ns (before diag.):
       0.287 -0.005  0.000  0.000  0.000
      -0.005  0.178 -0.000  0.003  0.000
       0.000 -0.000  0.159  0.000  0.016
       0.000  0.003  0.000  0.267 -0.000
       0.000  0.000  0.016 -0.000  0.195
     SPIN  2
     eigenvalues:
       0.153  0.178  0.201  0.267  0.288
     eigenvectors (columns):
      -0.000  0.047 -0.000 -0.011  0.999
      -0.000  0.998  0.000 -0.035 -0.048
      -0.938 -0.000  0.348 -0.000  0.000
       0.000 -0.035  0.000 -0.999 -0.009
       0.348 -0.000  0.938  0.000  0.000
     occupation matrix ns (before diag.):
       0.288 -0.005  0.000 -0.000  0.000
      -0.005  0.179 -0.000  0.003  0.000
       0.000 -0.000  0.159  0.000  0.016
      -0.000  0.003  0.000  0.267 -0.000
       0.000  0.000  0.016 -0.000  0.195
     ------------------------ ATOM   26 ------------------------
     Tr[ns( 26)] (up, down, total) =   1.12092  1.12160  2.24252
     Atomic magnetic moment for atom  26 =  -0.00067
     SPIN  1
     eigenvalues:
       0.141  0.199  0.219  0.265  0.297
     eigenvectors (columns):
       0.000  0.436  0.000  0.797 -0.417
       0.000 -0.777 -0.000  0.101 -0.621
      -0.918  0.000 -0.396  0.000  0.000
       0.000 -0.454  0.000  0.595  0.664
      -0.396 -0.000  0.918 -0.000 -0.000
     occupation matrix ns (before diag.):
       0.258  0.031 -0.000  0.005  0.000
       0.031  0.237 -0.000 -0.037  0.000
      -0.000 -0.000  0.153  0.000 -0.029
       0.005 -0.037  0.000  0.265 -0.000
       0.000  0.000 -0.029 -0.000  0.207
     SPIN  2
     eigenvalues:
       0.141  0.199  0.220  0.266  0.296
     eigenvectors (columns):
       0.000  0.436  0.000  0.797 -0.417
      -0.000 -0.775 -0.000  0.097 -0.624
      -0.919  0.000 -0.395  0.000  0.000
       0.000 -0.457  0.000  0.596  0.660
      -0.395 -0.000  0.919 -0.000 -0.000
     occupation matrix ns (before diag.):
       0.258  0.030 -0.000  0.005  0.000
       0.030  0.238 -0.000 -0.036  0.000
      -0.000 -0.000  0.153  0.000 -0.029
       0.005 -0.036  0.000  0.265 -0.000
       0.000  0.000 -0.029 -0.000  0.207
     ------------------------ ATOM   27 ------------------------
     Tr[ns( 27)] (up, down, total) =   1.06246  1.07913  2.14159
     Atomic magnetic moment for atom  27 =  -0.01668
     SPIN  1
     eigenvalues:
       0.153  0.163  0.174  0.281  0.292
     eigenvectors (columns):
      -0.027  0.024 -0.018  0.417 -0.908
       0.118 -0.979  0.162 -0.008 -0.036
       0.751  0.196  0.630  0.002 -0.028
      -0.024 -0.017  0.049  0.908  0.416
       0.648 -0.048 -0.758  0.050  0.017
     occupation matrix ns (before diag.):
       0.290  0.004  0.004 -0.004  0.001
       0.004  0.163  0.000 -0.003 -0.002
       0.004  0.000  0.162 -0.001 -0.010
      -0.004 -0.003 -0.001  0.282  0.006
       0.001 -0.002 -0.010  0.006  0.166
     SPIN  2
     eigenvalues:
       0.158  0.163  0.181  0.283  0.294
     eigenvectors (columns):
      -0.029 -0.023  0.014  0.486 -0.873
       0.096  0.976 -0.194 -0.004 -0.034
       0.864 -0.179 -0.470  0.004 -0.029
      -0.015  0.011 -0.055  0.872  0.485
       0.494  0.124  0.859  0.049  0.022
     occupation matrix ns (before diag.):
       0.291  0.004  0.004 -0.005  0.001
       0.004  0.164  0.001 -0.002 -0.003
       0.004  0.001  0.163 -0.001 -0.010
      -0.005 -0.002 -0.001  0.285  0.006
       0.001 -0.003 -0.010  0.006  0.175
     ------------------------ ATOM   36 ------------------------
     Tr[ns( 36)] (up, down, total) =   1.06178  1.06354  2.12532
     Atomic magnetic moment for atom  36 =  -0.00176
     SPIN  1
     eigenvalues:
       0.147  0.170  0.183  0.279  0.283
     eigenvectors (columns):
       0.006 -0.032 -0.064  0.964  0.256
      -0.111 -0.511 -0.843 -0.094  0.082
      -0.866  0.470 -0.169  0.004  0.021
       0.026  0.040  0.093 -0.248  0.963
       0.487  0.718 -0.498 -0.012  0.002
     occupation matrix ns (before diag.):
       0.279 -0.007  0.001  0.002 -0.001
      -0.007  0.180 -0.000  0.010  0.007
       0.001 -0.000  0.153  0.002  0.011
       0.002  0.010  0.002  0.281 -0.000
      -0.001  0.007  0.011 -0.000  0.168
     SPIN  2
     eigenvalues:
       0.147  0.170  0.183  0.280  0.283
     eigenvectors (columns):
       0.004 -0.032 -0.064  0.952  0.296
      -0.086 -0.533 -0.832 -0.097  0.077
      -0.880  0.436 -0.186 -0.001  0.024
       0.027  0.041  0.093 -0.289  0.952
       0.466  0.723 -0.510 -0.013  0.002
     occupation matrix ns (before diag.):
       0.280 -0.007  0.001  0.001 -0.001
      -0.007  0.181  0.001  0.010  0.007
       0.001  0.001  0.153  0.003  0.011
       0.001  0.010  0.003  0.282 -0.000
      -0.001  0.007  0.011 -0.000  0.168
     ------------------------ ATOM   37 ------------------------
     Tr[ns( 37)] (up, down, total) =   1.06138  1.06210  2.12348
     Atomic magnetic moment for atom  37 =  -0.00071
     SPIN  1
     eigenvalues:
       0.143  0.169  0.170  0.285  0.295
     eigenvectors (columns):
       0.000 -0.000  0.035  0.134 -0.990
       0.000 -0.000  0.997  0.067  0.044
       0.844  0.536  0.000  0.000 -0.000
      -0.000  0.000 -0.073  0.989  0.131
      -0.536  0.844  0.000 -0.000 -0.000
     occupation matrix ns (before diag.):
       0.295 -0.004  0.000 -0.001  0.000
      -0.004  0.171  0.000  0.008  0.000
       0.000  0.000  0.150  0.000  0.012
      -0.001  0.008  0.000  0.284 -0.000
       0.000  0.000  0.012 -0.000  0.161
     SPIN  2
     eigenvalues:
       0.143  0.169  0.170  0.285  0.296
     eigenvectors (columns):
       0.000 -0.000  0.035  0.128 -0.991
       0.000 -0.000  0.997  0.066  0.044
       0.844  0.537  0.000  0.000 -0.000
      -0.000  0.000 -0.071  0.989  0.126
      -0.537  0.844  0.000 -0.000 -0.000
     occupation matrix ns (before diag.):
       0.295 -0.004  0.000 -0.001  0.000
      -0.004  0.171  0.000  0.008  0.000
       0.000  0.000  0.150  0.000  0.012
      -0.001  0.008  0.000  0.284 -0.000
       0.000  0.000  0.012 -0.000  0.161
     ------------------------ ATOM   38 ------------------------
     Tr[ns( 38)] (up, down, total) =   1.06259  1.06384  2.12643
     Atomic magnetic moment for atom  38 =  -0.00125
     SPIN  1
     eigenvalues:
       0.146  0.162  0.172  0.285  0.297
     eigenvectors (columns):
       0.000 -0.031  0.000  0.660 -0.750
       0.000  0.999 -0.000 -0.013 -0.052
      -0.903  0.000  0.429  0.000  0.000
       0.000  0.044 -0.000  0.751  0.659
      -0.429 -0.000 -0.903 -0.000 -0.000
     occupation matrix ns (before diag.):
       0.292  0.004  0.000 -0.006  0.000
       0.004  0.162 -0.000 -0.006  0.000
       0.000 -0.000  0.151  0.000 -0.010
      -0.006 -0.006  0.000  0.290 -0.000
       0.000  0.000 -0.010 -0.000  0.168
     SPIN  2
     eigenvalues:
       0.147  0.162  0.172  0.285  0.298
     eigenvectors (columns):
       0.000 -0.032  0.000  0.638 -0.770
       0.000  0.999 -0.000 -0.011 -0.050
      -0.903  0.000  0.429  0.000  0.000
      -0.000  0.040 -0.000  0.770  0.636
      -0.429 -0.000 -0.903 -0.000 -0.000
     occupation matrix ns (before diag.):
       0.293  0.004  0.000 -0.006  0.000
       0.004  0.162 -0.000 -0.005  0.000
       0.000 -0.000  0.151  0.000 -0.010
      -0.006 -0.005  0.000  0.290 -0.000
       0.000  0.000 -0.010 -0.000  0.168
     ------------------------ ATOM   39 ------------------------
     Tr[ns( 39)] (up, down, total) =   1.06246  1.07913  2.14159
     Atomic magnetic moment for atom  39 =  -0.01668
     SPIN  1
     eigenvalues:
       0.153  0.163  0.174  0.281  0.292
     eigenvectors (columns):
       0.027  0.024  0.018  0.417 -0.908
      -0.118 -0.979 -0.162 -0.008 -0.036
       0.751 -0.196  0.630 -0.002  0.028
       0.024 -0.017 -0.049  0.908  0.416
       0.648  0.048 -0.758 -0.050 -0.017
     occupation matrix ns (before diag.):
       0.290  0.004 -0.004 -0.004 -0.001
       0.004  0.163 -0.000 -0.003  0.002
      -0.004 -0.000  0.162  0.001 -0.010
      -0.004 -0.003  0.001  0.282 -0.006
      -0.001  0.002 -0.010 -0.006  0.166
     SPIN  2
     eigenvalues:
       0.158  0.163  0.181  0.283  0.294
     eigenvectors (columns):
      -0.029  0.023 -0.014  0.486 -0.873
       0.096 -0.976  0.194 -0.004 -0.034
      -0.864 -0.179 -0.470 -0.004  0.029
      -0.015 -0.011  0.055  0.872  0.485
      -0.494  0.124  0.859 -0.049 -0.022
     occupation matrix ns (before diag.):
       0.291  0.004 -0.004 -0.005 -0.001
       0.004  0.164 -0.001 -0.002  0.003
      -0.004 -0.001  0.163  0.001 -0.010
      -0.005 -0.002  0.001  0.285 -0.006
      -0.001  0.003 -0.010 -0.006  0.175

     Number of occupied Hubbard levels =   32.3808

     Atomic wfc used for Hubbard projectors are orthogonalized

     Wavefunctions not found or not readable, recomputing them from scratch
     Starting wfcs are  282 randomized atomic wfcs
     Checking if some PAW data can be deallocated... 
       PAW data deallocated on    3 nodes for type:  3

     Band Structure Calculation
     CG style diagonalization

     Computing kpt #:     1  of    16
     c_bands: 36 eigenvalues not converged
     total cpu time spent up to now is     2294.1 secs

     Computing kpt #:     2  of    16
     c_bands: 33 eigenvalues not converged
     total cpu time spent up to now is     4346.2 secs

     Computing kpt #:     3  of    16
     c_bands: 37 eigenvalues not converged
     total cpu time spent up to now is     6040.5 secs

     Computing kpt #:     4  of    16
     c_bands: 36 eigenvalues not converged
     total cpu time spent up to now is     8009.7 secs

     Computing kpt #:     5  of    16
     c_bands: 38 eigenvalues not converged
     total cpu time spent up to now is     9994.0 secs

     Computing kpt #:     6  of    16
     c_bands: 37 eigenvalues not converged
     total cpu time spent up to now is    11243.3 secs

     Computing kpt #:     7  of    16
     c_bands: 34 eigenvalues not converged
     total cpu time spent up to now is    12517.4 secs

     Computing kpt #:     8  of    16
     c_bands: 33 eigenvalues not converged
     total cpu time spent up to now is    14005.8 secs

     Computing kpt #:     9  of    16
     c_bands: 34 eigenvalues not converged
     total cpu time spent up to now is    15705.6 secs

     Computing kpt #:    10  of    16
     c_bands: 35 eigenvalues not converged
     total cpu time spent up to now is    17225.5 secs

     Computing kpt #:    11  of    16
     c_bands: 34 eigenvalues not converged
     total cpu time spent up to now is    18540.4 secs

     Computing kpt #:    12  of    16
     c_bands: 36 eigenvalues not converged
     total cpu time spent up to now is    19809.6 secs

     Computing kpt #:    13  of    16
     c_bands: 35 eigenvalues not converged
     total cpu time spent up to now is    21098.7 secs

     Computing kpt #:    14  of    16
     c_bands: 37 eigenvalues not converged
     total cpu time spent up to now is    22366.3 secs

     Computing kpt #:    15  of    16
     c_bands: 34 eigenvalues not converged
     total cpu time spent up to now is    23622.7 secs

     Computing kpt #:    16  of    16
     c_bands: 33 eigenvalues not converged
     total cpu time spent up to now is    24878.6 secs

     ethr =  2.67E-13,  avg # of iterations = 80.9

     total cpu time spent up to now is    24878.6 secs

     End of band structure calculation

 ------ SPIN UP ------------


          k = 0.0000 0.0000 0.0000 ( 16565 PWs)   bands (ev):

   -50.4991 -50.4715 -50.4672 -50.4226 -50.4205 -50.4164 -50.4095 -50.4050
   -50.3951 -50.2589 -50.2061 -50.0036 -49.9369 -49.9197 -49.9087 -26.8099
   -26.7933 -26.7914 -26.7810 -26.7621 -26.7578 -26.7446 -26.7210 -26.7146
   -26.6936 -26.6849 -26.6750 -26.6719 -26.6481 -26.6455 -26.6339 -26.6221
   -26.6136 -26.6074 -26.6047 -26.5951 -26.5924 -26.5847 -26.5831 -26.5596
   -26.5415 -26.5293 -26.5227 -26.5155 -26.5060 -26.4323 -26.4293 -26.4223
   -26.3626 -26.3014 -26.2852 -26.2612 -26.1944 -26.1933 -26.1826 -26.1733
   -26.1532 -26.1254 -26.0657 -26.0411 -17.0986 -10.6865 -10.2690 -10.1806
   -10.1702 -10.1232  -9.9828  -9.7004  -9.6446  -9.5198  -9.5049  -9.4996
    -9.4187  -9.3961  -9.3756  -9.3664  -9.3091  -9.2970  -9.2934  -9.2687
    -9.2408  -9.2145  -9.1781  -9.1774  -9.1447  -9.1288  -9.0927  -9.0785
    -9.0686  -9.0385  -8.8039  -8.6809  -1.5829  -1.4078  -1.2587   2.4712
     2.5014   2.5533   2.6138   2.6181   2.6564   2.6953   2.7194   2.8098
     2.8745   2.8980   2.9660   3.0355   3.0833   3.1082   3.1087   3.1632
     3.1700   3.2002   3.2053   3.2343   3.2380   3.2731   3.2946   3.3277
     3.3503   3.4254   3.4284   3.4718   3.5616   3.6331   3.6836   3.7268
     3.8223   3.9466   3.9669   4.0036   4.1877   4.2060   4.2595   4.3416
     4.3979   4.4595   4.5086   4.5310   4.6460   4.7293   4.8186   4.8265
     4.8673   4.8966   4.9512   4.9610   4.9912   5.0424   5.0445   5.1173
     5.1398   5.1697   5.2830   5.3651   5.3680   5.3763   5.4009   5.4655
     5.5018   5.5850   5.6317   5.6411   5.6879   5.7895   5.8199   5.8217
     5.9001   5.9066   5.9441   5.9645   6.0138   6.0394   6.0483   6.1000
     6.1210   6.2894   6.3405   6.3627   6.4149   6.5130   6.5439   6.6409
     6.7607   6.7669   6.8452   6.9233   9.7938  10.0012  10.1485  10.3515
    10.3933  10.4384  10.4933  10.5111  10.5723  10.5859  10.6173  10.6404
    10.6655  10.6908  10.7035  10.7536  10.7770  10.7803  10.8353  10.8462
    10.8942  10.9193  10.9857  11.0023  11.0203  11.0581  11.1075  11.1746
    11.2843  11.3185  11.3558  11.3619  11.4162  11.4207  11.5169  11.5349
    11.5537  11.5902

     occupation numbers 
     1.0000   1.0000   1.0000   1.0000   1.0000   1.0000   1.0000   1.0000
     1.0000   1.0000   1.0000   1.0000   1.0000   1.0000   1.0000   1.0000
     1.0000   1.0000   1.0000   1.0000   1.0000   1.0000   1.0000   1.0000
     1.0000   1.0000   1.0000   1.0000   1.0000   1.0000   1.0000   1.0000
     1.0000   1.0000   1.0000   1.0000   1.0000   1.0000   1.0000   1.0000
     1.0000   1.0000   1.0000   1.0000   1.0000   1.0000   1.0000   1.0000
     1.0000   1.0000   1.0000   1.0000   1.0000   1.0000   1.0000   1.0000
     1.0000   1.0000   1.0000   1.0000   1.0000   1.0000   1.0000   1.0000
     1.0000   1.0000   1.0000   1.0000   1.0000   1.0000   1.0000   1.0000
     1.0000   1.0000   1.0000   1.0000   1.0000   1.0000   1.0000   1.0000
     1.0000   1.0000   1.0000   1.0000   1.0000   1.0000   1.0000   1.0000
     1.0000   1.0000   1.0000   1.0000   1.0000   1.0000   1.0000   1.0000
     1.0000   1.0000   1.0000   1.0000   1.0000   1.0000   1.0000   1.0000
     1.0000   1.0000   1.0000   1.0000   1.0000   1.0000   1.0000   1.0000
     1.0000   1.0000   1.0000   1.0000   1.0000   1.0000   1.0000   1.0000
     1.0000   1.0000   1.0000   1.0000   1.0000   1.0000   1.0000   1.0000
     1.0000   1.0000   1.0000   1.0000   1.0000   1.0000   1.0000   1.0000
     1.0000   1.0000   1.0000   1.0000   1.0000   1.0000   1.0000   1.0000
     1.0000   1.0000   1.0000   1.0000   1.0000   1.0000   1.0000   1.0000
     1.0000   1.0000   1.0000   1.0000   1.0000   1.0000   1.0000   1.0000
     1.0000   1.0000   1.0000   1.0000   1.0000   1.0000   1.0000   1.0000
     1.0000   1.0000   1.0000   1.0000   1.0000   1.0000   1.0000   1.0000
     1.0000   1.0000   1.0000   1.0000   1.0000   1.0000   1.0000   1.0000
     1.0000   1.0000   1.0000   1.0000   0.0000   0.0000   0.0000   0.0000
     0.0000   0.0000   0.0000   0.0000   0.0000   0.0000   0.0000   0.0000
     0.0000   0.0000   0.0000   0.0000   0.0000   0.0000   0.0000   0.0000
     0.0000   0.0000   0.0000   0.0000   0.0000   0.0000   0.0000   0.0000
     0.0000   0.0000   0.0000   0.0000   0.0000   0.0000   0.0000   0.0000
     0.0000   0.0000

          k = 0.0000 0.0000-0.3904 ( 16374 PWs)   bands (ev):

   -50.4990 -50.4714 -50.4671 -50.4241 -50.4194 -50.4163 -50.4086 -50.4051
   -50.3956 -50.2588 -50.2060 -50.0035 -49.9368 -49.9197 -49.9087 -26.7986
   -26.7922 -26.7903 -26.7785 -26.7630 -26.7608 -26.7484 -26.7235 -26.7193
   -26.6959 -26.6849 -26.6815 -26.6719 -26.6616 -26.6451 -26.6377 -26.6271
   -26.6058 -26.6041 -26.6017 -26.5920 -26.5842 -26.5795 -26.5662 -26.5598
   -26.5503 -26.5322 -26.5252 -26.5206 -26.5043 -26.4321 -26.4282 -26.4220
   -26.3630 -26.2996 -26.2849 -26.2623 -26.1945 -26.1930 -26.1817 -26.1733
   -26.1540 -26.1253 -26.0664 -26.0411 -17.0986 -10.6174 -10.4322 -10.2063
   -10.1792 -10.0324  -9.9223  -9.6855  -9.6144  -9.5772  -9.5049  -9.4992
    -9.4187  -9.4012  -9.3776  -9.3640  -9.3543  -9.3136  -9.2896  -9.2456
    -9.2298  -9.1919  -9.1783  -9.1753  -9.1547  -9.1272  -9.0876  -9.0771
    -9.0763  -9.0288  -8.8096  -8.6798  -1.5844  -1.4086  -1.2574   2.4674
     2.5024   2.5813   2.6148   2.6251   2.6663   2.7224   2.7542   2.7958
     2.8442   2.8840   2.9074   3.0722   3.0845   3.1099   3.1613   3.1680
     3.1831   3.2038   3.2237   3.2773   3.2953   3.3135   3.3206   3.3398
     3.3711   3.3800   3.4314   3.4978   3.5756   3.6281   3.6537   3.7104
     3.7360   3.8367   3.8528   3.9167   4.0253   4.0629   4.2064   4.2773
     4.3135   4.4685   4.5611   4.7283   4.7966   4.8513   4.8650   4.8679
     4.9385   4.9449   4.9608   5.0273   5.0614   5.0875   5.0919   5.1006
     5.1936   5.2054   5.2226   5.2423   5.3186   5.3531   5.3959   5.4774
     5.5118   5.5144   5.6588   5.6732   5.6755   5.7736   5.8337   5.8519
     5.9087   5.9187   5.9206   5.9503   6.0038   6.0104   6.0434   6.1332
     6.2100   6.3670   6.3740   6.4499   6.4519   6.4871   6.5372   6.6459
     6.6741   6.6933   6.7416   6.8677   9.7973  10.0075  10.1525  10.3351
    10.3870  10.4503  10.4910  10.5320  10.5795  10.6436  10.6592  10.6616
    10.7017  10.7069  10.7338  10.7662  10.7833  10.7951  10.8074  10.8218
    10.8538  10.8997  10.9130  11.0017  11.0269  11.0579  11.1026  11.1266
    11.2963  11.3103  11.3439  11.3986  11.4306  11.4421  11.4782  11.5309
    11.5601  11.5671

     occupation numbers 
     1.0000   1.0000   1.0000   1.0000   1.0000   1.0000   1.0000   1.0000
     1.0000   1.0000   1.0000   1.0000   1.0000   1.0000   1.0000   1.0000
     1.0000   1.0000   1.0000   1.0000   1.0000   1.0000   1.0000   1.0000
     1.0000   1.0000   1.0000   1.0000   1.0000   1.0000   1.0000   1.0000
     1.0000   1.0000   1.0000   1.0000   1.0000   1.0000   1.0000   1.0000
     1.0000   1.0000   1.0000   1.0000   1.0000   1.0000   1.0000   1.0000
     1.0000   1.0000   1.0000   1.0000   1.0000   1.0000   1.0000   1.0000
     1.0000   1.0000   1.0000   1.0000   1.0000   1.0000   1.0000   1.0000
     1.0000   1.0000   1.0000   1.0000   1.0000   1.0000   1.0000   1.0000
     1.0000   1.0000   1.0000   1.0000   1.0000   1.0000   1.0000   1.0000
     1.0000   1.0000   1.0000   1.0000   1.0000   1.0000   1.0000   1.0000
     1.0000   1.0000   1.0000   1.0000   1.0000   1.0000   1.0000   1.0000
     1.0000   1.0000   1.0000   1.0000   1.0000   1.0000   1.0000   1.0000
     1.0000   1.0000   1.0000   1.0000   1.0000   1.0000   1.0000   1.0000
     1.0000   1.0000   1.0000   1.0000   1.0000   1.0000   1.0000   1.0000
     1.0000   1.0000   1.0000   1.0000   1.0000   1.0000   1.0000   1.0000
     1.0000   1.0000   1.0000   1.0000   1.0000   1.0000   1.0000   1.0000
     1.0000   1.0000   1.0000   1.0000   1.0000   1.0000   1.0000   1.0000
     1.0000   1.0000   1.0000   1.0000   1.0000   1.0000   1.0000   1.0000
     1.0000   1.0000   1.0000   1.0000   1.0000   1.0000   1.0000   1.0000
     1.0000   1.0000   1.0000   1.0000   1.0000   1.0000   1.0000   1.0000
     1.0000   1.0000   1.0000   1.0000   1.0000   1.0000   1.0000   1.0000
     1.0000   1.0000   1.0000   1.0000   1.0000   1.0000   1.0000   1.0000
     1.0000   1.0000   1.0000   1.0000   0.0000   0.0000   0.0000   0.0000
     0.0000   0.0000   0.0000   0.0000   0.0000   0.0000   0.0000   0.0000
     0.0000   0.0000   0.0000   0.0000   0.0000   0.0000   0.0000   0.0000
     0.0000   0.0000   0.0000   0.0000   0.0000   0.0000   0.0000   0.0000
     0.0000   0.0000   0.0000   0.0000   0.0000   0.0000   0.0000   0.0000
     0.0000   0.0000

          k = 0.0000-0.5000 0.0000 ( 16390 PWs)   bands (ev):

   -50.4992 -50.4701 -50.4689 -50.4227 -50.4191 -50.4182 -50.4081 -50.4066
   -50.3950 -50.2590 -50.2061 -50.0037 -49.9366 -49.9207 -49.9083 -26.8084
   -26.7891 -26.7880 -26.7629 -26.7459 -26.7379 -26.7334 -26.7247 -26.7224
   -26.7185 -26.6994 -26.6744 -26.6670 -26.6553 -26.6543 -26.6411 -26.6280
   -26.6089 -26.6087 -26.6058 -26.5957 -26.5931 -26.5897 -26.5801 -26.5628
   -26.5414 -26.5267 -26.5208 -26.5154 -26.5019 -26.4339 -26.4285 -26.4241
   -26.3623 -26.2930 -26.2875 -26.2605 -26.1958 -26.1868 -26.1798 -26.1721
   -26.1502 -26.1485 -26.0579 -26.0448 -17.0983 -10.4663 -10.4269 -10.0671
    -9.9954  -9.9418  -9.9040  -9.8697  -9.8494  -9.6925  -9.5756  -9.4806
    -9.4347  -9.4299  -9.4013  -9.3486  -9.3346  -9.2778  -9.2773  -9.2617
    -9.2370  -9.2159  -9.2059  -9.1509  -9.1439  -9.1221  -9.1099  -9.1053
    -9.0525  -9.0434  -8.8578  -8.6123  -1.5735  -1.4030  -1.2663   2.3716
     2.4231   2.4970   2.5159   2.5442   2.5886   2.6400   2.7107   2.7360
     2.7609   2.8833   2.8915   3.0422   3.0515   3.1476   3.1949   3.1958
     3.2866   3.2875   3.3052   3.3463   3.3578   3.3819   3.3871   3.4589
     3.5238   3.5799   3.6021   3.6761   3.7185   3.7619   3.7926   3.9309
     3.9831   4.0148   4.0666   4.1155   4.1395   4.1789   4.2608   4.2940
     4.3360   4.3970   4.4534   4.5046   4.5263   4.5457   4.6392   4.6535
     4.6909   4.7701   4.7737   4.8146   4.8327   4.8867   4.9724   4.9798
     5.1022   5.1395   5.1630   5.2170   5.2195   5.4459   5.5123   5.5422
     5.5519   5.5950   5.6112   5.6680   5.7134   5.7919   5.8426   5.9645
     5.9680   5.9922   6.0656   6.0808   6.1376   6.2107   6.2330   6.2794
     6.2899   6.3358   6.3558   6.3980   6.4310   6.4667   6.5818   6.6203
     6.6271   6.6294   6.7049   6.7476  10.1846  10.1926  10.2455  10.2639
    10.3076  10.3372  10.3499  10.3788  10.4137  10.4315  10.5145  10.5421
    10.5597  10.5627  10.5810  10.6236  10.6691  10.7051  10.7139  10.7712
    10.8264  10.8346  10.8610  10.8988  10.9112  11.0402  11.0679  11.0714
    11.1009  11.1187  11.1945  11.3239  11.3446  11.3700  11.3707  11.3811
    11.4040  11.4847

     occupation numbers 
     1.0000   1.0000   1.0000   1.0000   1.0000   1.0000   1.0000   1.0000
     1.0000   1.0000   1.0000   1.0000   1.0000   1.0000   1.0000   1.0000
     1.0000   1.0000   1.0000   1.0000   1.0000   1.0000   1.0000   1.0000
     1.0000   1.0000   1.0000   1.0000   1.0000   1.0000   1.0000   1.0000
     1.0000   1.0000   1.0000   1.0000   1.0000   1.0000   1.0000   1.0000
     1.0000   1.0000   1.0000   1.0000   1.0000   1.0000   1.0000   1.0000
     1.0000   1.0000   1.0000   1.0000   1.0000   1.0000   1.0000   1.0000
     1.0000   1.0000   1.0000   1.0000   1.0000   1.0000   1.0000   1.0000
     1.0000   1.0000   1.0000   1.0000   1.0000   1.0000   1.0000   1.0000
     1.0000   1.0000   1.0000   1.0000   1.0000   1.0000   1.0000   1.0000
     1.0000   1.0000   1.0000   1.0000   1.0000   1.0000   1.0000   1.0000
     1.0000   1.0000   1.0000   1.0000   1.0000   1.0000   1.0000   1.0000
     1.0000   1.0000   1.0000   1.0000   1.0000   1.0000   1.0000   1.0000
     1.0000   1.0000   1.0000   1.0000   1.0000   1.0000   1.0000   1.0000
     1.0000   1.0000   1.0000   1.0000   1.0000   1.0000   1.0000   1.0000
     1.0000   1.0000   1.0000   1.0000   1.0000   1.0000   1.0000   1.0000
     1.0000   1.0000   1.0000   1.0000   1.0000   1.0000   1.0000   1.0000
     1.0000   1.0000   1.0000   1.0000   1.0000   1.0000   1.0000   1.0000
     1.0000   1.0000   1.0000   1.0000   1.0000   1.0000   1.0000   1.0000
     1.0000   1.0000   1.0000   1.0000   1.0000   1.0000   1.0000   1.0000
     1.0000   1.0000   1.0000   1.0000   1.0000   1.0000   1.0000   1.0000
     1.0000   1.0000   1.0000   1.0000   1.0000   1.0000   1.0000   1.0000
     1.0000   1.0000   1.0000   1.0000   1.0000   1.0000   1.0000   1.0000
     1.0000   1.0000   1.0000   1.0000   0.0000   0.0000   0.0000   0.0000
     0.0000   0.0000   0.0000   0.0000   0.0000   0.0000   0.0000   0.0000
     0.0000   0.0000   0.0000   0.0000   0.0000   0.0000   0.0000   0.0000
     0.0000   0.0000   0.0000   0.0000   0.0000   0.0000   0.0000   0.0000
     0.0000   0.0000   0.0000   0.0000   0.0000   0.0000   0.0000   0.0000
     0.0000   0.0000

          k = 0.0000-0.5000-0.3904 ( 16392 PWs)   bands (ev):

   -50.4992 -50.4700 -50.4689 -50.4238 -50.4184 -50.4182 -50.4073 -50.4066
   -50.3955 -50.2589 -50.2061 -50.0037 -49.9365 -49.9207 -49.9084 -26.7941
   -26.7866 -26.7862 -26.7677 -26.7589 -26.7338 -26.7332 -26.7258 -26.7238
   -26.7221 -26.7017 -26.6780 -26.6671 -26.6621 -26.6560 -26.6416 -26.6353
   -26.6105 -26.6054 -26.6008 -26.5952 -26.5838 -26.5819 -26.5654 -26.5638
   -26.5478 -26.5316 -26.5268 -26.5149 -26.5006 -26.4338 -26.4274 -26.4239
   -26.3628 -26.2911 -26.2873 -26.2617 -26.1959 -26.1856 -26.1798 -26.1726
   -26.1509 -26.1485 -26.0586 -26.0449 -17.0984 -10.4025 -10.3792 -10.2643
   -10.0937  -9.9122  -9.9037  -9.7852  -9.7613  -9.6546  -9.5724  -9.4709
    -9.4616  -9.4228  -9.3841  -9.3724  -9.3482  -9.3265  -9.3159  -9.2497
    -9.2308  -9.1989  -9.1819  -9.1493  -9.1478  -9.1186  -9.1177  -9.1039
    -9.0489  -9.0330  -8.8633  -8.6147  -1.5751  -1.4038  -1.2652   2.3646
     2.4349   2.4784   2.5356   2.5398   2.5781   2.6653   2.7044   2.7552
     2.8057   2.8396   2.8874   3.0158   3.1639   3.2139   3.2377   3.2700
     3.2823   3.2914   3.3204   3.3438   3.3637   3.3772   3.4082   3.4655
     3.5021   3.5324   3.5572   3.6086   3.6768   3.7297   3.7618   3.8246
     3.9089   3.9274   3.9658   4.0176   4.0824   4.1949   4.2234   4.2424
     4.3202   4.3419   4.4241   4.5818   4.6185   4.6242   4.6442   4.6973
     4.7956   4.8511   4.8655   4.8900   4.9024   4.9494   4.9592   5.0448
     5.0640   5.0890   5.2319   5.2716   5.2867   5.3162   5.3531   5.4431
     5.4875   5.6258   5.7017   5.7639   5.7906   5.8089   5.8655   5.8716
     6.0029   6.0549   6.1319   6.1434   6.1601   6.2164   6.2476   6.2765
     6.3004   6.3210   6.3359   6.3720   6.4061   6.4156   6.5127   6.5390
     6.5800   6.6753   6.6970   6.7010  10.1763  10.2069  10.2390  10.2612
    10.3242  10.3543  10.3727  10.3914  10.3945  10.4404  10.4731  10.5224
    10.5239  10.5820  10.5987  10.6260  10.6889  10.7033  10.7357  10.7896
    10.8114  10.8163  10.8384  10.8817  10.9348  11.0030  11.0450  11.0643
    11.1271  11.1330  11.2208  11.2378  11.2983  11.3664  11.3725  11.4073
    11.4263  11.4846

     occupation numbers 
     1.0000   1.0000   1.0000   1.0000   1.0000   1.0000   1.0000   1.0000
     1.0000   1.0000   1.0000   1.0000   1.0000   1.0000   1.0000   1.0000
     1.0000   1.0000   1.0000   1.0000   1.0000   1.0000   1.0000   1.0000
     1.0000   1.0000   1.0000   1.0000   1.0000   1.0000   1.0000   1.0000
     1.0000   1.0000   1.0000   1.0000   1.0000   1.0000   1.0000   1.0000
     1.0000   1.0000   1.0000   1.0000   1.0000   1.0000   1.0000   1.0000
     1.0000   1.0000   1.0000   1.0000   1.0000   1.0000   1.0000   1.0000
     1.0000   1.0000   1.0000   1.0000   1.0000   1.0000   1.0000   1.0000
     1.0000   1.0000   1.0000   1.0000   1.0000   1.0000   1.0000   1.0000
     1.0000   1.0000   1.0000   1.0000   1.0000   1.0000   1.0000   1.0000
     1.0000   1.0000   1.0000   1.0000   1.0000   1.0000   1.0000   1.0000
     1.0000   1.0000   1.0000   1.0000   1.0000   1.0000   1.0000   1.0000
     1.0000   1.0000   1.0000   1.0000   1.0000   1.0000   1.0000   1.0000
     1.0000   1.0000   1.0000   1.0000   1.0000   1.0000   1.0000   1.0000
     1.0000   1.0000   1.0000   1.0000   1.0000   1.0000   1.0000   1.0000
     1.0000   1.0000   1.0000   1.0000   1.0000   1.0000   1.0000   1.0000
     1.0000   1.0000   1.0000   1.0000   1.0000   1.0000   1.0000   1.0000
     1.0000   1.0000   1.0000   1.0000   1.0000   1.0000   1.0000   1.0000
     1.0000   1.0000   1.0000   1.0000   1.0000   1.0000   1.0000   1.0000
     1.0000   1.0000   1.0000   1.0000   1.0000   1.0000   1.0000   1.0000
     1.0000   1.0000   1.0000   1.0000   1.0000   1.0000   1.0000   1.0000
     1.0000   1.0000   1.0000   1.0000   1.0000   1.0000   1.0000   1.0000
     1.0000   1.0000   1.0000   1.0000   1.0000   1.0000   1.0000   1.0000
     1.0000   1.0000   1.0000   1.0000   0.0000   0.0000   0.0000   0.0000
     0.0000   0.0000   0.0000   0.0000   0.0000   0.0000   0.0000   0.0000
     0.0000   0.0000   0.0000   0.0000   0.0000   0.0000   0.0000   0.0000
     0.0000   0.0000   0.0000   0.0000   0.0000   0.0000   0.0000   0.0000
     0.0000   0.0000   0.0000   0.0000   0.0000   0.0000   0.0000   0.0000
     0.0000   0.0000

          k =-0.5000-0.5000 0.0000 ( 16392 PWs)   bands (ev):

   -50.4993 -50.4702 -50.4690 -50.4229 -50.4193 -50.4186 -50.4082 -50.4067
   -50.3952 -50.2591 -50.2063 -50.0038 -49.9368 -49.9208 -49.9085 -26.8064
   -26.7886 -26.7872 -26.7621 -26.7366 -26.7333 -26.7295 -26.7238 -26.7199
   -26.7022 -26.6935 -26.6755 -26.6750 -26.6607 -26.6538 -26.6467 -26.6290
   -26.6244 -26.6110 -26.6006 -26.5984 -26.5966 -26.5908 -26.5799 -26.5651
   -26.5430 -26.5234 -26.5214 -26.5128 -26.4977 -26.4367 -26.4339 -26.4245
   -26.3633 -26.2928 -26.2873 -26.2588 -26.1958 -26.1886 -26.1812 -26.1728
   -26.1510 -26.1488 -26.0578 -26.0448 -17.0986 -10.2587 -10.2521 -10.1470
   -10.1199  -9.8669  -9.8638  -9.8057  -9.7835  -9.7322  -9.7151  -9.6379
    -9.5405  -9.4415  -9.3667  -9.3434  -9.3216  -9.2955  -9.2855  -9.2576
    -9.2355  -9.2199  -9.2114  -9.1819  -9.1679  -9.1494  -9.1184  -9.0623
    -9.0573  -9.0352  -8.8433  -8.6139  -1.5671  -1.3795  -1.2645   2.3448
     2.3903   2.4698   2.4972   2.5215   2.5575   2.5745   2.6205   2.6210
     2.6832   2.7264   2.7982   3.0387   3.0679   3.0856   3.1219   3.1919
     3.2701   3.3956   3.4307   3.4857   3.4881   3.5460   3.5977   3.6222
     3.6684   3.6836   3.7327   3.7807   3.8961   3.9413   4.0195   4.0332
     4.0780   4.1287   4.1337   4.1645   4.1939   4.2104   4.2217   4.2542
     4.3136   4.3271   4.3833   4.3966   4.4916   4.4923   4.5587   4.6187
     4.6639   4.6649   4.6815   4.7041   4.7308   4.8539   4.9082   4.9475
     4.9728   5.0303   5.0879   5.0915   5.1398   5.3061   5.3608   5.4332
     5.5175   5.5971   5.6235   5.7012   5.8118   5.8127   5.8889   5.9348
     5.9577   6.0181   6.0540   6.0885   6.1708   6.2073   6.2419   6.3209
     6.3853   6.4015   6.4553   6.4624   6.5059   6.5404   6.6272   6.6431
     6.6746   6.7088   6.7092   6.7355  10.1411  10.1823  10.2052  10.2223
    10.2580  10.2620  10.3456  10.3490  10.3723  10.4169  10.5018  10.5023
    10.5257  10.5309  10.5630  10.5847  10.6230  10.6253  10.6456  10.7219
    10.7228  10.7254  10.7506  10.8039  10.8467  10.8931  10.9095  10.9333
    10.9716  10.9921  11.0342  11.0700  11.0785  11.1076  11.1359  11.1981
    11.2211  11.2951

     occupation numbers 
     1.0000   1.0000   1.0000   1.0000   1.0000   1.0000   1.0000   1.0000
     1.0000   1.0000   1.0000   1.0000   1.0000   1.0000   1.0000   1.0000
     1.0000   1.0000   1.0000   1.0000   1.0000   1.0000   1.0000   1.0000
     1.0000   1.0000   1.0000   1.0000   1.0000   1.0000   1.0000   1.0000
     1.0000   1.0000   1.0000   1.0000   1.0000   1.0000   1.0000   1.0000
     1.0000   1.0000   1.0000   1.0000   1.0000   1.0000   1.0000   1.0000
     1.0000   1.0000   1.0000   1.0000   1.0000   1.0000   1.0000   1.0000
     1.0000   1.0000   1.0000   1.0000   1.0000   1.0000   1.0000   1.0000
     1.0000   1.0000   1.0000   1.0000   1.0000   1.0000   1.0000   1.0000
     1.0000   1.0000   1.0000   1.0000   1.0000   1.0000   1.0000   1.0000
     1.0000   1.0000   1.0000   1.0000   1.0000   1.0000   1.0000   1.0000
     1.0000   1.0000   1.0000   1.0000   1.0000   1.0000   1.0000   1.0000
     1.0000   1.0000   1.0000   1.0000   1.0000   1.0000   1.0000   1.0000
     1.0000   1.0000   1.0000   1.0000   1.0000   1.0000   1.0000   1.0000
     1.0000   1.0000   1.0000   1.0000   1.0000   1.0000   1.0000   1.0000
     1.0000   1.0000   1.0000   1.0000   1.0000   1.0000   1.0000   1.0000
     1.0000   1.0000   1.0000   1.0000   1.0000   1.0000   1.0000   1.0000
     1.0000   1.0000   1.0000   1.0000   1.0000   1.0000   1.0000   1.0000
     1.0000   1.0000   1.0000   1.0000   1.0000   1.0000   1.0000   1.0000
     1.0000   1.0000   1.0000   1.0000   1.0000   1.0000   1.0000   1.0000
     1.0000   1.0000   1.0000   1.0000   1.0000   1.0000   1.0000   1.0000
     1.0000   1.0000   1.0000   1.0000   1.0000   1.0000   1.0000   1.0000
     1.0000   1.0000   1.0000   1.0000   1.0000   1.0000   1.0000   1.0000
     1.0000   1.0000   1.0000   1.0000   0.0000   0.0000   0.0000   0.0000
     0.0000   0.0000   0.0000   0.0000   0.0000   0.0000   0.0000   0.0000
     0.0000   0.0000   0.0000   0.0000   0.0000   0.0000   0.0000   0.0000
     0.0000   0.0000   0.0000   0.0000   0.0000   0.0000   0.0000   0.0000
     0.0000   0.0000   0.0000   0.0000   0.0000   0.0000   0.0000   0.0000
     0.0000   0.0000

          k =-0.5000-0.5000-0.3904 ( 16408 PWs)   bands (ev):

   -50.4994 -50.4702 -50.4690 -50.4241 -50.4186 -50.4185 -50.4075 -50.4067
   -50.3956 -50.2591 -50.2063 -50.0038 -49.9368 -49.9208 -49.9085 -26.7917
   -26.7858 -26.7856 -26.7630 -26.7581 -26.7331 -26.7296 -26.7231 -26.7175
   -26.7080 -26.6927 -26.6798 -26.6755 -26.6643 -26.6555 -26.6415 -26.6369
   -26.6236 -26.6075 -26.6000 -26.5999 -26.5915 -26.5835 -26.5659 -26.5628
   -26.5485 -26.5291 -26.5238 -26.5186 -26.4933 -26.4353 -26.4340 -26.4242
   -26.3639 -26.2909 -26.2870 -26.2600 -26.1959 -26.1871 -26.1812 -26.1734
   -26.1518 -26.1488 -26.0585 -26.0449 -17.0987 -10.2102 -10.1741 -10.1200
   -10.1113 -10.0616  -9.9925  -9.9086  -9.7931  -9.6008  -9.5998  -9.5319
    -9.5306  -9.4688  -9.3667  -9.3536  -9.3118  -9.3088  -9.2788  -9.2786
    -9.2503  -9.2283  -9.2105  -9.1935  -9.1848  -9.1183  -9.1046  -9.0708
    -9.0635  -9.0307  -8.8542  -8.6178  -1.5690  -1.3802  -1.2634   2.3324
     2.4052   2.4567   2.4891   2.4996   2.5481   2.5798   2.6231   2.6702
     2.7176   2.7202   2.7537   3.0769   3.1553   3.2055   3.2079   3.2870
     3.3322   3.3477   3.4201   3.4496   3.4840   3.4868   3.5183   3.5466
     3.5944   3.6318   3.6658   3.7988   3.8119   3.8456   3.9339   3.9994
     4.0541   4.0770   4.1033   4.1121   4.1807   4.1955   4.2847   4.3097
     4.3320   4.3392   4.3846   4.3896   4.4491   4.4920   4.5588   4.5886
     4.6472   4.6887   4.7100   4.7301   4.7967   4.8410   4.9591   5.0003
     5.0225   5.0616   5.0870   5.2436   5.2595   5.3030   5.3971   5.4252
     5.4986   5.6443   5.6445   5.7337   5.7476   5.8233   5.8975   6.0282
     6.0379   6.0734   6.0896   6.1031   6.1293   6.1652   6.2276   6.2433
     6.2792   6.2980   6.3142   6.4396   6.5091   6.5627   6.5928   6.6222
     6.6448   6.7287   6.7503   6.8139  10.1425  10.1469  10.1669  10.2011
    10.2120  10.2798  10.3946  10.4003  10.4569  10.4683  10.4768  10.5027
    10.5328  10.5353  10.5571  10.5741  10.6075  10.6119  10.6513  10.6606
    10.6615  10.7366  10.7453  10.7782  10.8705  10.9032  10.9044  10.9808
    10.9852  10.9987  11.0170  11.0586  11.1031  11.1144  11.1466  11.1855
    11.2097  11.2919

     occupation numbers 
     1.0000   1.0000   1.0000   1.0000   1.0000   1.0000   1.0000   1.0000
     1.0000   1.0000   1.0000   1.0000   1.0000   1.0000   1.0000   1.0000
     1.0000   1.0000   1.0000   1.0000   1.0000   1.0000   1.0000   1.0000
     1.0000   1.0000   1.0000   1.0000   1.0000   1.0000   1.0000   1.0000
     1.0000   1.0000   1.0000   1.0000   1.0000   1.0000   1.0000   1.0000
     1.0000   1.0000   1.0000   1.0000   1.0000   1.0000   1.0000   1.0000
     1.0000   1.0000   1.0000   1.0000   1.0000   1.0000   1.0000   1.0000
     1.0000   1.0000   1.0000   1.0000   1.0000   1.0000   1.0000   1.0000
     1.0000   1.0000   1.0000   1.0000   1.0000   1.0000   1.0000   1.0000
     1.0000   1.0000   1.0000   1.0000   1.0000   1.0000   1.0000   1.0000
     1.0000   1.0000   1.0000   1.0000   1.0000   1.0000   1.0000   1.0000
     1.0000   1.0000   1.0000   1.0000   1.0000   1.0000   1.0000   1.0000
     1.0000   1.0000   1.0000   1.0000   1.0000   1.0000   1.0000   1.0000
     1.0000   1.0000   1.0000   1.0000   1.0000   1.0000   1.0000   1.0000
     1.0000   1.0000   1.0000   1.0000   1.0000   1.0000   1.0000   1.0000
     1.0000   1.0000   1.0000   1.0000   1.0000   1.0000   1.0000   1.0000
     1.0000   1.0000   1.0000   1.0000   1.0000   1.0000   1.0000   1.0000
     1.0000   1.0000   1.0000   1.0000   1.0000   1.0000   1.0000   1.0000
     1.0000   1.0000   1.0000   1.0000   1.0000   1.0000   1.0000   1.0000
     1.0000   1.0000   1.0000   1.0000   1.0000   1.0000   1.0000   1.0000
     1.0000   1.0000   1.0000   1.0000   1.0000   1.0000   1.0000   1.0000
     1.0000   1.0000   1.0000   1.0000   1.0000   1.0000   1.0000   1.0000
     1.0000   1.0000   1.0000   1.0000   1.0000   1.0000   1.0000   1.0000
     1.0000   1.0000   1.0000   1.0000   0.0000   0.0000   0.0000   0.0000
     0.0000   0.0000   0.0000   0.0000   0.0000   0.0000   0.0000   0.0000
     0.0000   0.0000   0.0000   0.0000   0.0000   0.0000   0.0000   0.0000
     0.0000   0.0000   0.0000   0.0000   0.0000   0.0000   0.0000   0.0000
     0.0000   0.0000   0.0000   0.0000   0.0000   0.0000   0.0000   0.0000
     0.0000   0.0000

          k =-0.5000 0.0000 0.0000 ( 16390 PWs)   bands (ev):

   -50.4992 -50.4716 -50.4672 -50.4228 -50.4207 -50.4165 -50.4096 -50.4050
   -50.3953 -50.2589 -50.2062 -50.0036 -49.9370 -49.9198 -49.9088 -26.8080
   -26.7928 -26.7906 -26.7803 -26.7613 -26.7558 -26.7332 -26.7076 -26.6981
   -26.6942 -26.6840 -26.6771 -26.6704 -26.6604 -26.6557 -26.6359 -26.6279
   -26.6140 -26.6130 -26.6021 -26.5973 -26.5933 -26.5854 -26.5852 -26.5626
   -26.5430 -26.5287 -26.5199 -26.5136 -26.5012 -26.4376 -26.4323 -26.4226
   -26.3636 -26.3011 -26.2849 -26.2593 -26.1944 -26.1943 -26.1837 -26.1749
   -26.1542 -26.1253 -26.0655 -26.0410 -17.0988 -10.5285 -10.4013 -10.1652
    -9.9877  -9.9335  -9.8522  -9.8095  -9.7526  -9.6915  -9.6093  -9.5214
    -9.4821  -9.4283  -9.3754  -9.3362  -9.3253  -9.3021  -9.2674  -9.2668
    -9.2218  -9.2007  -9.1890  -9.1783  -9.1629  -9.1238  -9.1171  -9.0810
    -9.0591  -9.0337  -8.7950  -8.6921  -1.5756  -1.3841  -1.2558   2.4205
     2.4857   2.5192   2.5211   2.5763   2.5959   2.6259   2.6479   2.6883
     2.7653   2.8257   2.9067   3.0537   3.0896   3.0897   3.1096   3.1552
     3.1747   3.2063   3.2113   3.2595   3.2710   3.3731   3.3925   3.4166
     3.4782   3.5371   3.6016   3.7134   3.7829   3.8732   3.9406   3.9431
     3.9631   4.0156   4.0751   4.1639   4.2116   4.2459   4.3228   4.3300
     4.3895   4.4490   4.5179   4.5184   4.5894   4.6181   4.6214   4.6606
     4.6776   4.7114   4.7180   4.7626   4.8056   4.8136   4.9054   5.0104
     5.0590   5.1529   5.2087   5.2387   5.2595   5.3757   5.4575   5.5173
     5.6076   5.6263   5.7508   5.7754   5.8377   5.8571   5.8646   5.8996
     5.9235   5.9679   6.0273   6.0359   6.0700   6.1672   6.1688   6.1885
     6.2748   6.3152   6.3752   6.3873   6.4320   6.4909   6.5088   6.6112
     6.6573   6.7390   6.7490   6.7897  10.1037  10.1322  10.2354  10.2452
    10.3010  10.3226  10.3767  10.3918  10.4471  10.4505  10.4619  10.4887
    10.5201  10.5735  10.5981  10.6164  10.6464  10.7089  10.7319  10.7925
    10.8153  10.8184  10.8650  10.8939  10.9399  10.9500  10.9906  11.0623
    11.0920  11.1371  11.1944  11.2320  11.2994  11.3043  11.4008  11.4043
    11.5307  11.5754

     occupation numbers 
     1.0000   1.0000   1.0000   1.0000   1.0000   1.0000   1.0000   1.0000
     1.0000   1.0000   1.0000   1.0000   1.0000   1.0000   1.0000   1.0000
     1.0000   1.0000   1.0000   1.0000   1.0000   1.0000   1.0000   1.0000
     1.0000   1.0000   1.0000   1.0000   1.0000   1.0000   1.0000   1.0000
     1.0000   1.0000   1.0000   1.0000   1.0000   1.0000   1.0000   1.0000
     1.0000   1.0000   1.0000   1.0000   1.0000   1.0000   1.0000   1.0000
     1.0000   1.0000   1.0000   1.0000   1.0000   1.0000   1.0000   1.0000
     1.0000   1.0000   1.0000   1.0000   1.0000   1.0000   1.0000   1.0000
     1.0000   1.0000   1.0000   1.0000   1.0000   1.0000   1.0000   1.0000
     1.0000   1.0000   1.0000   1.0000   1.0000   1.0000   1.0000   1.0000
     1.0000   1.0000   1.0000   1.0000   1.0000   1.0000   1.0000   1.0000
     1.0000   1.0000   1.0000   1.0000   1.0000   1.0000   1.0000   1.0000
     1.0000   1.0000   1.0000   1.0000   1.0000   1.0000   1.0000   1.0000
     1.0000   1.0000   1.0000   1.0000   1.0000   1.0000   1.0000   1.0000
     1.0000   1.0000   1.0000   1.0000   1.0000   1.0000   1.0000   1.0000
     1.0000   1.0000   1.0000   1.0000   1.0000   1.0000   1.0000   1.0000
     1.0000   1.0000   1.0000   1.0000   1.0000   1.0000   1.0000   1.0000
     1.0000   1.0000   1.0000   1.0000   1.0000   1.0000   1.0000   1.0000
     1.0000   1.0000   1.0000   1.0000   1.0000   1.0000   1.0000   1.0000
     1.0000   1.0000   1.0000   1.0000   1.0000   1.0000   1.0000   1.0000
     1.0000   1.0000   1.0000   1.0000   1.0000   1.0000   1.0000   1.0000
     1.0000   1.0000   1.0000   1.0000   1.0000   1.0000   1.0000   1.0000
     1.0000   1.0000   1.0000   1.0000   1.0000   1.0000   1.0000   1.0000
     1.0000   1.0000   1.0000   1.0000   0.0000   0.0000   0.0000   0.0000
     0.0000   0.0000   0.0000   0.0000   0.0000   0.0000   0.0000   0.0000
     0.0000   0.0000   0.0000   0.0000   0.0000   0.0000   0.0000   0.0000
     0.0000   0.0000   0.0000   0.0000   0.0000   0.0000   0.0000   0.0000
     0.0000   0.0000   0.0000   0.0000   0.0000   0.0000   0.0000   0.0000
     0.0000   0.0000

          k =-0.5000 0.0000 0.3904 ( 16392 PWs)   bands (ev):

   -50.4992 -50.4716 -50.4672 -50.4243 -50.4196 -50.4165 -50.4088 -50.4052
   -50.3957 -50.2590 -50.2062 -50.0036 -49.9370 -49.9198 -49.9088 -26.7970
   -26.7916 -26.7897 -26.7778 -26.7601 -26.7573 -26.7458 -26.7114 -26.7026
   -26.6963 -26.6837 -26.6806 -26.6702 -26.6695 -26.6551 -26.6304 -26.6294
   -26.6152 -26.6136 -26.6007 -26.5938 -26.5906 -26.5799 -26.5656 -26.5629
   -26.5499 -26.5290 -26.5254 -26.5221 -26.4963 -26.4363 -26.4323 -26.4222
   -26.3641 -26.2993 -26.2847 -26.2606 -26.1945 -26.1938 -26.1829 -26.1749
   -26.1552 -26.1254 -26.0663 -26.0411 -17.0988 -10.4664 -10.3782 -10.2961
   -10.0600  -9.9318  -9.8080  -9.7736  -9.6870  -9.6718  -9.6016  -9.5240
    -9.5043  -9.4340  -9.3677  -9.3425  -9.3367  -9.3227  -9.2806  -9.2626
    -9.2159  -9.2082  -9.1969  -9.1844  -9.1341  -9.1185  -9.0960  -9.0869
    -9.0725  -9.0308  -8.8042  -8.6905  -1.5775  -1.3848  -1.2545   2.4059
     2.4784   2.4935   2.5137   2.5897   2.5949   2.6673   2.6763   2.7264
     2.7782   2.7979   2.8678   3.0903   3.1136   3.1210   3.1688   3.1706
     3.1908   3.2208   3.2584   3.3080   3.3489   3.3774   3.3823   3.4591
     3.5044   3.5069   3.5549   3.6280   3.6478   3.6533   3.7593   3.8059
     3.9645   4.0427   4.0453   4.1374   4.1379   4.1709   4.3416   4.3783
     4.4592   4.4631   4.4807   4.5322   4.5351   4.5844   4.6689   4.6945
     4.7165   4.7697   4.7805   4.8606   4.8978   4.9490   4.9860   5.0186
     5.0914   5.1873   5.2092   5.2199   5.2656   5.4124   5.4882   5.4957
     5.5357   5.6099   5.6430   5.6861   5.8284   5.8458   5.9293   5.9412
     6.0054   6.0339   6.0517   6.0876   6.1125   6.1590   6.1746   6.2048
     6.2167   6.2868   6.2968   6.3644   6.4094   6.5213   6.5278   6.6075
     6.6168   6.6683   6.7421   6.7829  10.1136  10.1438  10.2175  10.2254
    10.2496  10.3245  10.3656  10.3857  10.4471  10.4679  10.5073  10.5214
    10.5376  10.5470  10.5766  10.6543  10.6704  10.6895  10.7421  10.8002
    10.8141  10.8302  10.8615  10.8994  10.9226  10.9523  10.9835  11.0296
    11.0531  11.1395  11.1711  11.2110  11.2902  11.3458  11.3847  11.3856
    11.4593  11.5720

     occupation numbers 
     1.0000   1.0000   1.0000   1.0000   1.0000   1.0000   1.0000   1.0000
     1.0000   1.0000   1.0000   1.0000   1.0000   1.0000   1.0000   1.0000
     1.0000   1.0000   1.0000   1.0000   1.0000   1.0000   1.0000   1.0000
     1.0000   1.0000   1.0000   1.0000   1.0000   1.0000   1.0000   1.0000
     1.0000   1.0000   1.0000   1.0000   1.0000   1.0000   1.0000   1.0000
     1.0000   1.0000   1.0000   1.0000   1.0000   1.0000   1.0000   1.0000
     1.0000   1.0000   1.0000   1.0000   1.0000   1.0000   1.0000   1.0000
     1.0000   1.0000   1.0000   1.0000   1.0000   1.0000   1.0000   1.0000
     1.0000   1.0000   1.0000   1.0000   1.0000   1.0000   1.0000   1.0000
     1.0000   1.0000   1.0000   1.0000   1.0000   1.0000   1.0000   1.0000
     1.0000   1.0000   1.0000   1.0000   1.0000   1.0000   1.0000   1.0000
     1.0000   1.0000   1.0000   1.0000   1.0000   1.0000   1.0000   1.0000
     1.0000   1.0000   1.0000   1.0000   1.0000   1.0000   1.0000   1.0000
     1.0000   1.0000   1.0000   1.0000   1.0000   1.0000   1.0000   1.0000
     1.0000   1.0000   1.0000   1.0000   1.0000   1.0000   1.0000   1.0000
     1.0000   1.0000   1.0000   1.0000   1.0000   1.0000   1.0000   1.0000
     1.0000   1.0000   1.0000   1.0000   1.0000   1.0000   1.0000   1.0000
     1.0000   1.0000   1.0000   1.0000   1.0000   1.0000   1.0000   1.0000
     1.0000   1.0000   1.0000   1.0000   1.0000   1.0000   1.0000   1.0000
     1.0000   1.0000   1.0000   1.0000   1.0000   1.0000   1.0000   1.0000
     1.0000   1.0000   1.0000   1.0000   1.0000   1.0000   1.0000   1.0000
     1.0000   1.0000   1.0000   1.0000   1.0000   1.0000   1.0000   1.0000
     1.0000   1.0000   1.0000   1.0000   1.0000   1.0000   1.0000   1.0000
     1.0000   1.0000   1.0000   1.0000   0.0000   0.0000   0.0000   0.0000
     0.0000   0.0000   0.0000   0.0000   0.0000   0.0000   0.0000   0.0000
     0.0000   0.0000   0.0000   0.0000   0.0000   0.0000   0.0000   0.0000
     0.0000   0.0000   0.0000   0.0000   0.0000   0.0000   0.0000   0.0000
     0.0000   0.0000   0.0000   0.0000   0.0000   0.0000   0.0000   0.0000
     0.0000   0.0000

 ------ SPIN DOWN ----------


          k = 0.0000 0.0000 0.0000 ( 16565 PWs)   bands (ev):

   -50.4999 -50.4729 -50.4687 -50.4304 -50.4263 -50.4228 -50.4134 -50.4101
   -50.3973 -50.2594 -50.2054 -50.0042 -49.9542 -49.9454 -49.9174 -26.8120
   -26.7950 -26.7935 -26.7823 -26.7650 -26.7603 -26.7471 -26.7245 -26.7179
   -26.7016 -26.6888 -26.6802 -26.6729 -26.6519 -26.6506 -26.6396 -26.6248
   -26.6171 -26.6156 -26.6098 -26.5970 -26.5949 -26.5886 -26.5870 -26.5641
   -26.5440 -26.5296 -26.5269 -26.5189 -26.5064 -26.4321 -26.4291 -26.4227
   -26.3628 -26.3159 -26.2961 -26.2626 -26.2181 -26.1997 -26.1962 -26.1951
   -26.1648 -26.1541 -26.0754 -26.0502 -17.0969 -10.6424 -10.2448 -10.1441
   -10.1025 -10.0717  -9.9209  -9.6551  -9.6174  -9.4650  -9.4384  -9.4166
    -9.3866  -9.3672  -9.3114  -9.3080  -9.2931  -9.2701  -9.2545  -9.2313
    -9.2237  -9.1768  -9.1670  -9.1324  -9.1280  -9.0979  -9.0730  -9.0727
    -9.0374  -8.7963  -8.6716  -8.5422  -1.5698  -1.4044  -1.2577   2.4806
     2.5128   2.5824   2.6223   2.6462   2.6740   2.7230   2.7566   2.8200
     2.8820   2.9076   2.9760   3.0453   3.0913   3.1197   3.1494   3.1824
     3.1841   3.2147   3.2477   3.2482   3.2877   3.3032   3.3311   3.3526
     3.3700   3.4368   3.4411   3.5051   3.5848   3.6536   3.6994   3.7452
     3.8475   3.9650   3.9915   4.0427   4.1972   4.2843   4.2971   4.3872
     4.4207   4.4849   4.5123   4.5422   4.6759   4.7793   4.8467   4.8827
     4.8855   4.9029   5.0036   5.0093   5.0525   5.0595   5.1071   5.1511
     5.1840   5.2764   5.2954   5.3972   5.4096   5.4534   5.5106   5.5359
     5.5884   5.6399   5.6628   5.7061   5.7377   5.8298   5.8384   5.9094
     5.9198   5.9269   5.9797   6.0003   6.0278   6.0537   6.1016   6.1256
     6.1901   6.4083   6.4230   6.4527   6.4662   6.5969   6.6376   6.7122
     6.7763   6.8515   6.9722   7.2782   9.7916   9.9991  10.1169  10.3425
    10.3948  10.4346  10.4906  10.5005  10.5784  10.5812  10.6120  10.6435
    10.6601  10.6934  10.7036  10.7503  10.7697  10.7784  10.8233  10.8450
    10.9013  10.9191  10.9749  11.0125  11.0160  11.0603  11.1077  11.1727
    11.2967  11.3288  11.3548  11.3570  11.4121  11.4194  11.5149  11.5337
    11.5650  11.5851

     occupation numbers 
     1.0000   1.0000   1.0000   1.0000   1.0000   1.0000   1.0000   1.0000
     1.0000   1.0000   1.0000   1.0000   1.0000   1.0000   1.0000   1.0000
     1.0000   1.0000   1.0000   1.0000   1.0000   1.0000   1.0000   1.0000
     1.0000   1.0000   1.0000   1.0000   1.0000   1.0000   1.0000   1.0000
     1.0000   1.0000   1.0000   1.0000   1.0000   1.0000   1.0000   1.0000
     1.0000   1.0000   1.0000   1.0000   1.0000   1.0000   1.0000   1.0000
     1.0000   1.0000   1.0000   1.0000   1.0000   1.0000   1.0000   1.0000
     1.0000   1.0000   1.0000   1.0000   1.0000   1.0000   1.0000   1.0000
     1.0000   1.0000   1.0000   1.0000   1.0000   1.0000   1.0000   1.0000
     1.0000   1.0000   1.0000   1.0000   1.0000   1.0000   1.0000   1.0000
     1.0000   1.0000   1.0000   1.0000   1.0000   1.0000   1.0000   1.0000
     1.0000   1.0000   1.0000   1.0000   1.0000   1.0000   1.0000   1.0000
     1.0000   1.0000   1.0000   1.0000   1.0000   1.0000   1.0000   1.0000
     1.0000   1.0000   1.0000   1.0000   1.0000   1.0000   1.0000   1.0000
     1.0000   1.0000   1.0000   1.0000   1.0000   1.0000   1.0000   1.0000
     1.0000   1.0000   1.0000   1.0000   1.0000   1.0000   1.0000   1.0000
     1.0000   1.0000   1.0000   1.0000   1.0000   1.0000   1.0000   1.0000
     1.0000   1.0000   1.0000   1.0000   1.0000   1.0000   1.0000   1.0000
     1.0000   1.0000   1.0000   1.0000   1.0000   1.0000   1.0000   1.0000
     1.0000   1.0000   1.0000   1.0000   1.0000   1.0000   1.0000   1.0000
     1.0000   1.0000   1.0000   1.0000   1.0000   1.0000   1.0000   1.0000
     1.0000   1.0000   1.0000   1.0000   1.0000   1.0000   1.0000   1.0000
     1.0000   1.0000   1.0000   1.0000   1.0000   1.0000   1.0000   1.0000
     1.0000   1.0000   1.0000   0.0000   0.0000   0.0000   0.0000   0.0000
     0.0000   0.0000   0.0000   0.0000   0.0000   0.0000   0.0000   0.0000
     0.0000   0.0000   0.0000   0.0000   0.0000   0.0000   0.0000   0.0000
     0.0000   0.0000   0.0000   0.0000   0.0000   0.0000   0.0000   0.0000
     0.0000   0.0000   0.0000   0.0000   0.0000   0.0000   0.0000   0.0000
     0.0000   0.0000

          k = 0.0000 0.0000-0.3904 ( 16374 PWs)   bands (ev):

   -50.4999 -50.4728 -50.4686 -50.4313 -50.4262 -50.4221 -50.4128 -50.4101
   -50.3977 -50.2593 -50.2053 -50.0042 -49.9541 -49.9453 -49.9175 -26.8001
   -26.7937 -26.7924 -26.7803 -26.7661 -26.7637 -26.7508 -26.7270 -26.7216
   -26.7041 -26.6888 -26.6872 -26.6729 -26.6651 -26.6499 -26.6432 -26.6301
   -26.6159 -26.6082 -26.6033 -26.5947 -26.5879 -26.5827 -26.5700 -26.5641
   -26.5527 -26.5342 -26.5297 -26.5220 -26.5049 -26.4318 -26.4281 -26.4224
   -26.3632 -26.3141 -26.2958 -26.2638 -26.2179 -26.1996 -26.1952 -26.1952
   -26.1656 -26.1541 -26.0761 -26.0503 -17.0969 -10.5665 -10.4001 -10.1958
   -10.1008  -9.9799  -9.8523  -9.6639  -9.5926  -9.4898  -9.4391  -9.4196
    -9.3848  -9.3665  -9.3435  -9.3094  -9.3011  -9.2858  -9.2690  -9.2170
    -9.1961  -9.1812  -9.1579  -9.1363  -9.1331  -9.0947  -9.0707  -9.0704
    -9.0243  -8.8037  -8.6705  -8.5416  -1.5713  -1.4052  -1.2564   2.4766
     2.5133   2.5958   2.6457   2.6583   2.6834   2.7501   2.7670   2.8105
     2.8568   2.8950   2.9172   3.0895   3.0928   3.1377   3.1836   3.1887
     3.2198   3.2267   3.2798   3.3052   3.3201   3.3335   3.3377   3.3576
     3.3775   3.4324   3.4503   3.5114   3.5870   3.6594   3.6644   3.7317
     3.7588   3.8544   3.8738   3.9294   4.0415   4.0770   4.2374   4.3371
     4.3815   4.4883   4.5815   4.7727   4.8166   4.8923   4.9273   4.9499
     4.9557   4.9647   5.0065   5.0517   5.0822   5.1045   5.1567   5.2106
     5.2150   5.2401   5.2543   5.3274   5.3593   5.4441   5.4567   5.5220
     5.5261   5.5819   5.6885   5.7021   5.7426   5.8545   5.8793   5.9034
     5.9290   5.9738   5.9821   5.9861   6.0109   6.0719   6.1064   6.2061
     6.2296   6.4005   6.4713   6.5037   6.5225   6.5841   6.6663   6.6822
     6.6947   6.7015   6.9275   7.2505   9.7953  10.0057  10.1208  10.3235
    10.3877  10.4421  10.4894  10.5366  10.5866  10.6441  10.6548  10.6708
    10.6927  10.7061  10.7304  10.7659  10.7796  10.7937  10.8020  10.8158
    10.8448  10.8987  10.9133  10.9899  11.0389  11.0558  11.1025  11.1250
    11.2916  11.3209  11.3498  11.3968  11.4281  11.4389  11.4741  11.5322
    11.5665  11.5713

     occupation numbers 
     1.0000   1.0000   1.0000   1.0000   1.0000   1.0000   1.0000   1.0000
     1.0000   1.0000   1.0000   1.0000   1.0000   1.0000   1.0000   1.0000
     1.0000   1.0000   1.0000   1.0000   1.0000   1.0000   1.0000   1.0000
     1.0000   1.0000   1.0000   1.0000   1.0000   1.0000   1.0000   1.0000
     1.0000   1.0000   1.0000   1.0000   1.0000   1.0000   1.0000   1.0000
     1.0000   1.0000   1.0000   1.0000   1.0000   1.0000   1.0000   1.0000
     1.0000   1.0000   1.0000   1.0000   1.0000   1.0000   1.0000   1.0000
     1.0000   1.0000   1.0000   1.0000   1.0000   1.0000   1.0000   1.0000
     1.0000   1.0000   1.0000   1.0000   1.0000   1.0000   1.0000   1.0000
     1.0000   1.0000   1.0000   1.0000   1.0000   1.0000   1.0000   1.0000
     1.0000   1.0000   1.0000   1.0000   1.0000   1.0000   1.0000   1.0000
     1.0000   1.0000   1.0000   1.0000   1.0000   1.0000   1.0000   1.0000
     1.0000   1.0000   1.0000   1.0000   1.0000   1.0000   1.0000   1.0000
     1.0000   1.0000   1.0000   1.0000   1.0000   1.0000   1.0000   1.0000
     1.0000   1.0000   1.0000   1.0000   1.0000   1.0000   1.0000   1.0000
     1.0000   1.0000   1.0000   1.0000   1.0000   1.0000   1.0000   1.0000
     1.0000   1.0000   1.0000   1.0000   1.0000   1.0000   1.0000   1.0000
     1.0000   1.0000   1.0000   1.0000   1.0000   1.0000   1.0000   1.0000
     1.0000   1.0000   1.0000   1.0000   1.0000   1.0000   1.0000   1.0000
     1.0000   1.0000   1.0000   1.0000   1.0000   1.0000   1.0000   1.0000
     1.0000   1.0000   1.0000   1.0000   1.0000   1.0000   1.0000   1.0000
     1.0000   1.0000   1.0000   1.0000   1.0000   1.0000   1.0000   1.0000
     1.0000   1.0000   1.0000   1.0000   1.0000   1.0000   1.0000   1.0000
     1.0000   1.0000   1.0000   0.0000   0.0000   0.0000   0.0000   0.0000
     0.0000   0.0000   0.0000   0.0000   0.0000   0.0000   0.0000   0.0000
     0.0000   0.0000   0.0000   0.0000   0.0000   0.0000   0.0000   0.0000
     0.0000   0.0000   0.0000   0.0000   0.0000   0.0000   0.0000   0.0000
     0.0000   0.0000   0.0000   0.0000   0.0000   0.0000   0.0000   0.0000
     0.0000   0.0000

          k = 0.0000-0.5000 0.0000 ( 16390 PWs)   bands (ev):

   -50.5000 -50.4715 -50.4704 -50.4292 -50.4279 -50.4229 -50.4119 -50.4117
   -50.3974 -50.2595 -50.2054 -50.0043 -49.9537 -49.9463 -49.9173 -26.8105
   -26.7911 -26.7900 -26.7660 -26.7475 -26.7407 -26.7344 -26.7270 -26.7258
   -26.7206 -26.7009 -26.6801 -26.6742 -26.6667 -26.6598 -26.6461 -26.6320
   -26.6136 -26.6109 -26.6100 -26.5980 -26.5959 -26.5921 -26.5843 -26.5673
   -26.5438 -26.5297 -26.5225 -26.5190 -26.5023 -26.4337 -26.4284 -26.4245
   -26.3625 -26.3065 -26.2987 -26.2620 -26.2089 -26.2066 -26.1965 -26.1881
   -26.1751 -26.1638 -26.0697 -26.0527 -17.0967 -10.4241 -10.3641 -10.0280
    -9.9696  -9.9179  -9.8422  -9.8325  -9.8297  -9.6500  -9.5474  -9.4043
    -9.3732  -9.3698  -9.3193  -9.2955  -9.2848  -9.2511  -9.2240  -9.2178
    -9.2082  -9.1837  -9.1525  -9.1367  -9.1299  -9.0994  -9.0907  -9.0733
    -9.0236  -8.8319  -8.6906  -8.5336  -1.5603  -1.3999  -1.2653   2.3769
     2.4302   2.5085   2.5215   2.5501   2.6068   2.6699   2.7489   2.7506
     2.7780   2.8952   2.9004   3.0509   3.0666   3.1625   3.2329   3.2565
     3.3073   3.3136   3.3654   3.3809   3.3810   3.3897   3.4352   3.4731
     3.5431   3.5927   3.6665   3.6885   3.7700   3.7854   3.8033   3.9587
     3.9970   4.0387   4.1227   4.1258   4.1667   4.2197   4.2890   4.2979
     4.3540   4.4502   4.4790   4.5344   4.5447   4.5910   4.6521   4.6804
     4.7026   4.7870   4.8339   4.8442   4.8502   4.9024   4.9898   5.1153
     5.1430   5.1735   5.2202   5.2588   5.3126   5.4949   5.5608   5.5660
     5.6066   5.6251   5.6372   5.7028   5.7476   5.8224   5.9213   5.9972
     6.0097   6.0279   6.1055   6.1778   6.1878   6.2564   6.2686   6.3285
     6.3673   6.4045   6.4240   6.4359   6.4902   6.6012   6.6224   6.6603
     6.7014   6.7650   6.8162   7.1830  10.1797  10.1910  10.2385  10.2661
    10.3030  10.3182  10.3465  10.3782  10.4137  10.4276  10.5103  10.5388
    10.5492  10.5611  10.5747  10.6273  10.6709  10.7055  10.7145  10.7701
    10.8248  10.8357  10.8642  10.8968  10.9057  11.0365  11.0525  11.0684
    11.1000  11.1168  11.1937  11.3232  11.3385  11.3665  11.3709  11.3752
    11.4028  11.4699

     occupation numbers 
     1.0000   1.0000   1.0000   1.0000   1.0000   1.0000   1.0000   1.0000
     1.0000   1.0000   1.0000   1.0000   1.0000   1.0000   1.0000   1.0000
     1.0000   1.0000   1.0000   1.0000   1.0000   1.0000   1.0000   1.0000
     1.0000   1.0000   1.0000   1.0000   1.0000   1.0000   1.0000   1.0000
     1.0000   1.0000   1.0000   1.0000   1.0000   1.0000   1.0000   1.0000
     1.0000   1.0000   1.0000   1.0000   1.0000   1.0000   1.0000   1.0000
     1.0000   1.0000   1.0000   1.0000   1.0000   1.0000   1.0000   1.0000
     1.0000   1.0000   1.0000   1.0000   1.0000   1.0000   1.0000   1.0000
     1.0000   1.0000   1.0000   1.0000   1.0000   1.0000   1.0000   1.0000
     1.0000   1.0000   1.0000   1.0000   1.0000   1.0000   1.0000   1.0000
     1.0000   1.0000   1.0000   1.0000   1.0000   1.0000   1.0000   1.0000
     1.0000   1.0000   1.0000   1.0000   1.0000   1.0000   1.0000   1.0000
     1.0000   1.0000   1.0000   1.0000   1.0000   1.0000   1.0000   1.0000
     1.0000   1.0000   1.0000   1.0000   1.0000   1.0000   1.0000   1.0000
     1.0000   1.0000   1.0000   1.0000   1.0000   1.0000   1.0000   1.0000
     1.0000   1.0000   1.0000   1.0000   1.0000   1.0000   1.0000   1.0000
     1.0000   1.0000   1.0000   1.0000   1.0000   1.0000   1.0000   1.0000
     1.0000   1.0000   1.0000   1.0000   1.0000   1.0000   1.0000   1.0000
     1.0000   1.0000   1.0000   1.0000   1.0000   1.0000   1.0000   1.0000
     1.0000   1.0000   1.0000   1.0000   1.0000   1.0000   1.0000   1.0000
     1.0000   1.0000   1.0000   1.0000   1.0000   1.0000   1.0000   1.0000
     1.0000   1.0000   1.0000   1.0000   1.0000   1.0000   1.0000   1.0000
     1.0000   1.0000   1.0000   1.0000   1.0000   1.0000   1.0000   1.0000
     1.0000   1.0000   1.0000   0.0000   0.0000   0.0000   0.0000   0.0000
     0.0000   0.0000   0.0000   0.0000   0.0000   0.0000   0.0000   0.0000
     0.0000   0.0000   0.0000   0.0000   0.0000   0.0000   0.0000   0.0000
     0.0000   0.0000   0.0000   0.0000   0.0000   0.0000   0.0000   0.0000
     0.0000   0.0000   0.0000   0.0000   0.0000   0.0000   0.0000   0.0000
     0.0000   0.0000

          k = 0.0000-0.5000-0.3904 ( 16392 PWs)   bands (ev):

   -50.5001 -50.4714 -50.4704 -50.4301 -50.4280 -50.4221 -50.4119 -50.4113
   -50.3978 -50.2595 -50.2054 -50.0043 -49.9536 -49.9463 -49.9174 -26.7956
   -26.7886 -26.7879 -26.7708 -26.7620 -26.7364 -26.7341 -26.7290 -26.7263
   -26.7240 -26.7032 -26.6830 -26.6740 -26.6689 -26.6659 -26.6450 -26.6420
   -26.6166 -26.6077 -26.6025 -26.5976 -26.5876 -26.5844 -26.5697 -26.5679
   -26.5502 -26.5351 -26.5303 -26.5164 -26.5012 -26.4336 -26.4273 -26.4244
   -26.3629 -26.3047 -26.2985 -26.2632 -26.2084 -26.2066 -26.1966 -26.1877
   -26.1751 -26.1647 -26.0704 -26.0528 -17.0967 -10.3308 -10.3221 -10.2446
   -10.0713  -9.8962  -9.8904  -9.7245  -9.6806  -9.6180  -9.5514  -9.4302
    -9.4029  -9.3415  -9.3346  -9.3158  -9.2923  -9.2853  -9.2237  -9.2218
    -9.1950  -9.1663  -9.1575  -9.1320  -9.1316  -9.1048  -9.0957  -9.0593
    -9.0138  -8.8375  -8.6902  -8.5354  -1.5620  -1.4008  -1.2641   2.3697
     2.4430   2.4919   2.5401   2.5450   2.5958   2.6940   2.7426   2.7733
     2.8181   2.8492   2.8959   3.0250   3.1839   3.2504   3.2906   3.2970
     3.3235   3.3370   3.3530   3.3548   3.3974   3.4218   3.4315   3.5056
     3.5122   3.5684   3.5753   3.6233   3.6995   3.7392   3.7857   3.8440
     3.9326   3.9558   4.0291   4.0379   4.0945   4.2261   4.2401   4.2618
     4.3550   4.3717   4.4778   4.5999   4.6445   4.6509   4.6509   4.7327
     4.8287   4.8632   4.8857   4.9146   4.9351   4.9897   5.0463   5.0878
     5.0979   5.1918   5.3013   5.3240   5.3286   5.3685   5.3763   5.4749
     5.5505   5.6455   5.7536   5.8006   5.8066   5.8425   5.8892   5.9137
     6.1272   6.1318   6.1841   6.1997   6.2163   6.2517   6.2887   6.3314
     6.3374   6.3452   6.3745   6.4478   6.4503   6.5166   6.5523   6.6140
     6.6998   6.7416   6.8182   7.1815  10.1736  10.2026  10.2283  10.2627
    10.3214  10.3487  10.3560  10.3924  10.3935  10.4348  10.4746  10.5218
    10.5238  10.5727  10.5993  10.6234  10.6908  10.7036  10.7431  10.7930
    10.8099  10.8143  10.8321  10.8725  10.9325  10.9998  11.0309  11.0654
    11.1245  11.1262  11.2170  11.2387  11.2945  11.3647  11.3675  11.4031
    11.4229  11.4606

     occupation numbers 
     1.0000   1.0000   1.0000   1.0000   1.0000   1.0000   1.0000   1.0000
     1.0000   1.0000   1.0000   1.0000   1.0000   1.0000   1.0000   1.0000
     1.0000   1.0000   1.0000   1.0000   1.0000   1.0000   1.0000   1.0000
     1.0000   1.0000   1.0000   1.0000   1.0000   1.0000   1.0000   1.0000
     1.0000   1.0000   1.0000   1.0000   1.0000   1.0000   1.0000   1.0000
     1.0000   1.0000   1.0000   1.0000   1.0000   1.0000   1.0000   1.0000
     1.0000   1.0000   1.0000   1.0000   1.0000   1.0000   1.0000   1.0000
     1.0000   1.0000   1.0000   1.0000   1.0000   1.0000   1.0000   1.0000
     1.0000   1.0000   1.0000   1.0000   1.0000   1.0000   1.0000   1.0000
     1.0000   1.0000   1.0000   1.0000   1.0000   1.0000   1.0000   1.0000
     1.0000   1.0000   1.0000   1.0000   1.0000   1.0000   1.0000   1.0000
     1.0000   1.0000   1.0000   1.0000   1.0000   1.0000   1.0000   1.0000
     1.0000   1.0000   1.0000   1.0000   1.0000   1.0000   1.0000   1.0000
     1.0000   1.0000   1.0000   1.0000   1.0000   1.0000   1.0000   1.0000
     1.0000   1.0000   1.0000   1.0000   1.0000   1.0000   1.0000   1.0000
     1.0000   1.0000   1.0000   1.0000   1.0000   1.0000   1.0000   1.0000
     1.0000   1.0000   1.0000   1.0000   1.0000   1.0000   1.0000   1.0000
     1.0000   1.0000   1.0000   1.0000   1.0000   1.0000   1.0000   1.0000
     1.0000   1.0000   1.0000   1.0000   1.0000   1.0000   1.0000   1.0000
     1.0000   1.0000   1.0000   1.0000   1.0000   1.0000   1.0000   1.0000
     1.0000   1.0000   1.0000   1.0000   1.0000   1.0000   1.0000   1.0000
     1.0000   1.0000   1.0000   1.0000   1.0000   1.0000   1.0000   1.0000
     1.0000   1.0000   1.0000   1.0000   1.0000   1.0000   1.0000   1.0000
     1.0000   1.0000   1.0000   0.0000   0.0000   0.0000   0.0000   0.0000
     0.0000   0.0000   0.0000   0.0000   0.0000   0.0000   0.0000   0.0000
     0.0000   0.0000   0.0000   0.0000   0.0000   0.0000   0.0000   0.0000
     0.0000   0.0000   0.0000   0.0000   0.0000   0.0000   0.0000   0.0000
     0.0000   0.0000   0.0000   0.0000   0.0000   0.0000   0.0000   0.0000
     0.0000   0.0000

          k =-0.5000-0.5000 0.0000 ( 16392 PWs)   bands (ev):

   -50.5002 -50.4717 -50.4705 -50.4295 -50.4282 -50.4230 -50.4121 -50.4118
   -50.3976 -50.2597 -50.2056 -50.0044 -49.9539 -49.9464 -49.9175 -26.8085
   -26.7904 -26.7891 -26.7649 -26.7392 -26.7342 -26.7316 -26.7253 -26.7230
   -26.7056 -26.6959 -26.6813 -26.6784 -26.6664 -26.6662 -26.6515 -26.6338
   -26.6297 -26.6124 -26.6066 -26.6013 -26.5985 -26.5932 -26.5846 -26.5692
   -26.5452 -26.5263 -26.5234 -26.5164 -26.4981 -26.4365 -26.4337 -26.4249
   -26.3635 -26.3063 -26.2985 -26.2603 -26.2104 -26.2079 -26.1965 -26.1887
   -26.1754 -26.1650 -26.0696 -26.0527 -17.0970 -10.2172 -10.2118 -10.1167
   -10.0764  -9.8257  -9.8251  -9.7625  -9.6696  -9.6657  -9.6447  -9.6219
    -9.5340  -9.3864  -9.3409  -9.3193  -9.2988  -9.2633  -9.2541  -9.2412
    -9.2101  -9.1742  -9.1472  -9.1404  -9.1300  -9.1044  -9.0487  -9.0413
    -9.0214  -8.8177  -8.6986  -8.5305  -1.5537  -1.3767  -1.2635   2.3524
     2.4007   2.4810   2.5148   2.5277   2.5728   2.5906   2.6398   2.6441
     2.6899   2.7563   2.8088   3.0543   3.0822   3.1073   3.1338   3.2350
     3.2860   3.4538   3.4545   3.5077   3.5215   3.5598   3.6109   3.6714
     3.7126   3.7301   3.7848   3.8283   3.9157   3.9738   4.0296   4.0558
     4.0912   4.1470   4.1540   4.1984   4.2222   4.2347   4.2829   4.3240
     4.3459   4.3503   4.3928   4.4350   4.5180   4.5229   4.6385   4.6718
     4.6739   4.6885   4.7017   4.7417   4.7751   4.8772   4.9208   4.9737
     4.9887   5.0798   5.1097   5.1124   5.2322   5.3529   5.3742   5.4723
     5.5407   5.6258   5.6430   5.7188   5.8437   5.8960   5.9187   6.0087
     6.0169   6.0762   6.1183   6.2066   6.2177   6.2431   6.3369   6.3917
     6.4296   6.4381   6.4965   6.4989   6.5646   6.6582   6.6639   6.7093
     6.7311   6.8103   6.8126   7.2524  10.1394  10.1801  10.2040  10.2131
    10.2531  10.2581  10.3377  10.3486  10.3694  10.4162  10.4922  10.5017
    10.5196  10.5274  10.5626  10.5833  10.6189  10.6218  10.6439  10.7190
    10.7220  10.7231  10.7547  10.8046  10.8429  10.8907  10.9029  10.9322
    10.9658  10.9866  11.0283  11.0715  11.0721  11.1080  11.1184  11.1977
    11.2186  11.2554

     occupation numbers 
     1.0000   1.0000   1.0000   1.0000   1.0000   1.0000   1.0000   1.0000
     1.0000   1.0000   1.0000   1.0000   1.0000   1.0000   1.0000   1.0000
     1.0000   1.0000   1.0000   1.0000   1.0000   1.0000   1.0000   1.0000
     1.0000   1.0000   1.0000   1.0000   1.0000   1.0000   1.0000   1.0000
     1.0000   1.0000   1.0000   1.0000   1.0000   1.0000   1.0000   1.0000
     1.0000   1.0000   1.0000   1.0000   1.0000   1.0000   1.0000   1.0000
     1.0000   1.0000   1.0000   1.0000   1.0000   1.0000   1.0000   1.0000
     1.0000   1.0000   1.0000   1.0000   1.0000   1.0000   1.0000   1.0000
     1.0000   1.0000   1.0000   1.0000   1.0000   1.0000   1.0000   1.0000
     1.0000   1.0000   1.0000   1.0000   1.0000   1.0000   1.0000   1.0000
     1.0000   1.0000   1.0000   1.0000   1.0000   1.0000   1.0000   1.0000
     1.0000   1.0000   1.0000   1.0000   1.0000   1.0000   1.0000   1.0000
     1.0000   1.0000   1.0000   1.0000   1.0000   1.0000   1.0000   1.0000
     1.0000   1.0000   1.0000   1.0000   1.0000   1.0000   1.0000   1.0000
     1.0000   1.0000   1.0000   1.0000   1.0000   1.0000   1.0000   1.0000
     1.0000   1.0000   1.0000   1.0000   1.0000   1.0000   1.0000   1.0000
     1.0000   1.0000   1.0000   1.0000   1.0000   1.0000   1.0000   1.0000
     1.0000   1.0000   1.0000   1.0000   1.0000   1.0000   1.0000   1.0000
     1.0000   1.0000   1.0000   1.0000   1.0000   1.0000   1.0000   1.0000
     1.0000   1.0000   1.0000   1.0000   1.0000   1.0000   1.0000   1.0000
     1.0000   1.0000   1.0000   1.0000   1.0000   1.0000   1.0000   1.0000
     1.0000   1.0000   1.0000   1.0000   1.0000   1.0000   1.0000   1.0000
     1.0000   1.0000   1.0000   1.0000   1.0000   1.0000   1.0000   1.0000
     1.0000   1.0000   1.0000   0.0000   0.0000   0.0000   0.0000   0.0000
     0.0000   0.0000   0.0000   0.0000   0.0000   0.0000   0.0000   0.0000
     0.0000   0.0000   0.0000   0.0000   0.0000   0.0000   0.0000   0.0000
     0.0000   0.0000   0.0000   0.0000   0.0000   0.0000   0.0000   0.0000
     0.0000   0.0000   0.0000   0.0000   0.0000   0.0000   0.0000   0.0000
     0.0000   0.0000

          k =-0.5000-0.5000-0.3904 ( 16408 PWs)   bands (ev):

   -50.5002 -50.4716 -50.4705 -50.4305 -50.4282 -50.4223 -50.4120 -50.4114
   -50.3979 -50.2597 -50.2056 -50.0044 -49.9539 -49.9464 -49.9175 -26.7933
   -26.7877 -26.7871 -26.7665 -26.7610 -26.7340 -26.7329 -26.7242 -26.7197
   -26.7117 -26.6950 -26.6824 -26.6814 -26.6690 -26.6685 -26.6487 -26.6410
   -26.6270 -26.6094 -26.6053 -26.6025 -26.5956 -26.5864 -26.5696 -26.5667
   -26.5504 -26.5327 -26.5275 -26.5200 -26.4942 -26.4351 -26.4338 -26.4246
   -26.3640 -26.3045 -26.2982 -26.2615 -26.2097 -26.2079 -26.1966 -26.1882
   -26.1754 -26.1660 -26.0703 -26.0527 -17.0970 -10.1626 -10.1258 -10.0748
   -10.0742 -10.0382  -9.9698  -9.8683  -9.6608  -9.5448  -9.5269  -9.5103
    -9.4996  -9.4272  -9.3403  -9.3336  -9.2932  -9.2874  -9.2671  -9.2281
    -9.2200  -9.1974  -9.1636  -9.1546  -9.0876  -9.0845  -9.0619  -9.0540
    -9.0200  -8.8272  -8.7010  -8.5320  -1.5556  -1.3776  -1.2623   2.3401
     2.4166   2.4677   2.4982   2.5154   2.5641   2.5984   2.6391   2.6795
     2.7397   2.7547   2.7568   3.0889   3.1668   3.2242   3.2527   3.3019
     3.3655   3.3837   3.4316   3.4754   3.5217   3.5266   3.5391   3.5700
     3.6409   3.6428   3.7561   3.8199   3.8406   3.9138   3.9501   4.0163
     4.0650   4.0897   4.1162   4.1253   4.2137   4.2498   4.3224   4.3469
     4.3550   4.3788   4.3997   4.4573   4.4852   4.5258   4.5910   4.6002
     4.7036   4.7114   4.7325   4.7999   4.8290   4.8528   5.0151   5.0188
     5.0752   5.1014   5.1195   5.2538   5.3019   5.3499   5.4073   5.4394
     5.5358   5.6609   5.6716   5.8020   5.8137   5.9018   5.9382   6.0542
     6.1010   6.1111   6.1388   6.1778   6.1788   6.2277   6.2685   6.3194
     6.3241   6.3684   6.3724   6.4972   6.6113   6.6255   6.6519   6.6665
     6.7614   6.8497   6.8688   7.2484  10.1398  10.1456  10.1629  10.1979
    10.2080  10.2791  10.3908  10.3927  10.4515  10.4685  10.4734  10.4992
    10.5311  10.5315  10.5561  10.5662  10.6068  10.6123  10.6504  10.6578
    10.6614  10.7266  10.7450  10.7734  10.8673  10.8989  10.9045  10.9756
    10.9802  11.0018  11.0158  11.0476  11.1004  11.1130  11.1441  11.1804
    11.2056  11.2837

     occupation numbers 
     1.0000   1.0000   1.0000   1.0000   1.0000   1.0000   1.0000   1.0000
     1.0000   1.0000   1.0000   1.0000   1.0000   1.0000   1.0000   1.0000
     1.0000   1.0000   1.0000   1.0000   1.0000   1.0000   1.0000   1.0000
     1.0000   1.0000   1.0000   1.0000   1.0000   1.0000   1.0000   1.0000
     1.0000   1.0000   1.0000   1.0000   1.0000   1.0000   1.0000   1.0000
     1.0000   1.0000   1.0000   1.0000   1.0000   1.0000   1.0000   1.0000
     1.0000   1.0000   1.0000   1.0000   1.0000   1.0000   1.0000   1.0000
     1.0000   1.0000   1.0000   1.0000   1.0000   1.0000   1.0000   1.0000
     1.0000   1.0000   1.0000   1.0000   1.0000   1.0000   1.0000   1.0000
     1.0000   1.0000   1.0000   1.0000   1.0000   1.0000   1.0000   1.0000
     1.0000   1.0000   1.0000   1.0000   1.0000   1.0000   1.0000   1.0000
     1.0000   1.0000   1.0000   1.0000   1.0000   1.0000   1.0000   1.0000
     1.0000   1.0000   1.0000   1.0000   1.0000   1.0000   1.0000   1.0000
     1.0000   1.0000   1.0000   1.0000   1.0000   1.0000   1.0000   1.0000
     1.0000   1.0000   1.0000   1.0000   1.0000   1.0000   1.0000   1.0000
     1.0000   1.0000   1.0000   1.0000   1.0000   1.0000   1.0000   1.0000
     1.0000   1.0000   1.0000   1.0000   1.0000   1.0000   1.0000   1.0000
     1.0000   1.0000   1.0000   1.0000   1.0000   1.0000   1.0000   1.0000
     1.0000   1.0000   1.0000   1.0000   1.0000   1.0000   1.0000   1.0000
     1.0000   1.0000   1.0000   1.0000   1.0000   1.0000   1.0000   1.0000
     1.0000   1.0000   1.0000   1.0000   1.0000   1.0000   1.0000   1.0000
     1.0000   1.0000   1.0000   1.0000   1.0000   1.0000   1.0000   1.0000
     1.0000   1.0000   1.0000   1.0000   1.0000   1.0000   1.0000   1.0000
     1.0000   1.0000   1.0000   0.0000   0.0000   0.0000   0.0000   0.0000
     0.0000   0.0000   0.0000   0.0000   0.0000   0.0000   0.0000   0.0000
     0.0000   0.0000   0.0000   0.0000   0.0000   0.0000   0.0000   0.0000
     0.0000   0.0000   0.0000   0.0000   0.0000   0.0000   0.0000   0.0000
     0.0000   0.0000   0.0000   0.0000   0.0000   0.0000   0.0000   0.0000
     0.0000   0.0000

          k =-0.5000 0.0000 0.0000 ( 16390 PWs)   bands (ev):

   -50.5000 -50.4731 -50.4687 -50.4308 -50.4264 -50.4229 -50.4135 -50.4101
   -50.3975 -50.2595 -50.2055 -50.0043 -49.9543 -49.9454 -49.9175 -26.8101
   -26.7944 -26.7926 -26.7816 -26.7641 -26.7580 -26.7370 -26.7113 -26.7027
   -26.6980 -26.6886 -26.6830 -26.6712 -26.6646 -26.6592 -26.6392 -26.6338
   -26.6234 -26.6153 -26.6054 -26.5998 -26.5981 -26.5896 -26.5887 -26.5669
   -26.5453 -26.5293 -26.5242 -26.5169 -26.5017 -26.4373 -26.4321 -26.4230
   -26.3638 -26.3156 -26.2959 -26.2608 -26.2190 -26.2011 -26.1972 -26.1951
   -26.1661 -26.1541 -26.0752 -26.0502 -17.0971 -10.4946 -10.3697 -10.1333
    -9.8623  -9.8543  -9.8127  -9.7249  -9.7177  -9.6653  -9.5874  -9.5046
    -9.4213  -9.4048  -9.3402  -9.3204  -9.3062  -9.2590  -9.2172  -9.2030
    -9.1951  -9.1857  -9.1515  -9.1418  -9.1369  -9.1047  -9.0907  -9.0520
    -9.0316  -8.7838  -8.6829  -8.5417  -1.5622  -1.3811  -1.2548   2.4341
     2.4970   2.5390   2.5516   2.5967   2.6093   2.6524   2.6596   2.7034
     2.7776   2.8500   2.9135   3.0648   3.0936   3.1062   3.1357   3.1654
     3.1894   3.2276   3.2281   3.2873   3.3173   3.3923   3.4080   3.4301
     3.4996   3.5534   3.6550   3.7427   3.8090   3.8895   3.9553   3.9652
     4.0328   4.0995   4.1207   4.1902   4.2572   4.2922   4.3499   4.3607
     4.4568   4.4778   4.5462   4.5550   4.6209   4.6362   4.6630   4.6777
     4.6864   4.7205   4.7641   4.8217   4.8414   4.8479   4.9258   5.0556
     5.0845   5.1939   5.2533   5.2558   5.3036   5.3827   5.4782   5.5930
     5.6561   5.6627   5.8059   5.8127   5.8808   5.8854   5.9314   5.9541
     6.0098   6.0381   6.0576   6.1100   6.1810   6.1830   6.2121   6.2817
     6.3297   6.3863   6.3968   6.4356   6.5556   6.5585   6.5733   6.6888
     6.7108   6.7735   6.8569   7.2272  10.0934  10.1227  10.2384  10.2433
    10.2901  10.3195  10.3756  10.3932  10.4454  10.4505  10.4597  10.4872
    10.5112  10.5636  10.6021  10.6063  10.6432  10.7151  10.7290  10.7836
    10.8150  10.8219  10.8673  10.8904  10.9286  10.9528  10.9803  11.0452
    11.0853  11.1265  11.1965  11.2300  11.2987  11.3041  11.4034  11.4141
    11.5313  11.5742

     occupation numbers 
     1.0000   1.0000   1.0000   1.0000   1.0000   1.0000   1.0000   1.0000
     1.0000   1.0000   1.0000   1.0000   1.0000   1.0000   1.0000   1.0000
     1.0000   1.0000   1.0000   1.0000   1.0000   1.0000   1.0000   1.0000
     1.0000   1.0000   1.0000   1.0000   1.0000   1.0000   1.0000   1.0000
     1.0000   1.0000   1.0000   1.0000   1.0000   1.0000   1.0000   1.0000
     1.0000   1.0000   1.0000   1.0000   1.0000   1.0000   1.0000   1.0000
     1.0000   1.0000   1.0000   1.0000   1.0000   1.0000   1.0000   1.0000
     1.0000   1.0000   1.0000   1.0000   1.0000   1.0000   1.0000   1.0000
     1.0000   1.0000   1.0000   1.0000   1.0000   1.0000   1.0000   1.0000
     1.0000   1.0000   1.0000   1.0000   1.0000   1.0000   1.0000   1.0000
     1.0000   1.0000   1.0000   1.0000   1.0000   1.0000   1.0000   1.0000
     1.0000   1.0000   1.0000   1.0000   1.0000   1.0000   1.0000   1.0000
     1.0000   1.0000   1.0000   1.0000   1.0000   1.0000   1.0000   1.0000
     1.0000   1.0000   1.0000   1.0000   1.0000   1.0000   1.0000   1.0000
     1.0000   1.0000   1.0000   1.0000   1.0000   1.0000   1.0000   1.0000
     1.0000   1.0000   1.0000   1.0000   1.0000   1.0000   1.0000   1.0000
     1.0000   1.0000   1.0000   1.0000   1.0000   1.0000   1.0000   1.0000
     1.0000   1.0000   1.0000   1.0000   1.0000   1.0000   1.0000   1.0000
     1.0000   1.0000   1.0000   1.0000   1.0000   1.0000   1.0000   1.0000
     1.0000   1.0000   1.0000   1.0000   1.0000   1.0000   1.0000   1.0000
     1.0000   1.0000   1.0000   1.0000   1.0000   1.0000   1.0000   1.0000
     1.0000   1.0000   1.0000   1.0000   1.0000   1.0000   1.0000   1.0000
     1.0000   1.0000   1.0000   1.0000   1.0000   1.0000   1.0000   1.0000
     1.0000   1.0000   1.0000   0.0000   0.0000   0.0000   0.0000   0.0000
     0.0000   0.0000   0.0000   0.0000   0.0000   0.0000   0.0000   0.0000
     0.0000   0.0000   0.0000   0.0000   0.0000   0.0000   0.0000   0.0000
     0.0000   0.0000   0.0000   0.0000   0.0000   0.0000   0.0000   0.0000
     0.0000   0.0000   0.0000   0.0000   0.0000   0.0000   0.0000   0.0000
     0.0000   0.0000

          k =-0.5000 0.0000 0.3904 ( 16392 PWs)   bands (ev):

   -50.5000 -50.4730 -50.4687 -50.4316 -50.4264 -50.4223 -50.4130 -50.4102
   -50.3978 -50.2595 -50.2055 -50.0043 -49.9543 -49.9454 -49.9175 -26.7984
   -26.7931 -26.7916 -26.7794 -26.7628 -26.7610 -26.7483 -26.7151 -26.7045
   -26.7035 -26.6883 -26.6868 -26.6733 -26.6710 -26.6584 -26.6362 -26.6322
   -26.6231 -26.6177 -26.6024 -26.5997 -26.5950 -26.5835 -26.5693 -26.5668
   -26.5518 -26.5312 -26.5269 -26.5266 -26.4971 -26.4361 -26.4320 -26.4226
   -26.3643 -26.3139 -26.2957 -26.2620 -26.2187 -26.2012 -26.1961 -26.1951
   -26.1671 -26.1541 -26.0760 -26.0502 -17.0971 -10.4337 -10.3350 -10.2796
    -9.9440  -9.8603  -9.7552  -9.7155  -9.6496  -9.6124  -9.5813  -9.4916
    -9.4576  -9.4009  -9.3489  -9.3327  -9.3074  -9.2666  -9.2235  -9.2091
    -9.1849  -9.1849  -9.1789  -9.1403  -9.1031  -9.0944  -9.0890  -9.0734
    -9.0269  -8.7926  -8.6813  -8.5405  -1.5641  -1.3818  -1.2535   2.4183
     2.4893   2.5221   2.5351   2.5940   2.6363   2.6837   2.6842   2.7369
     2.8054   2.8125   2.8731   3.0972   3.1187   3.1536   3.1864   3.2038
     3.2055   3.2237   3.2680   3.3477   3.3907   3.3949   3.4243   3.4716
     3.5239   3.5248   3.5704   3.6506   3.6583   3.7283   3.7889   3.8129
     4.0054   4.0605   4.0991   4.1817   4.2024   4.2557   4.3670   4.3957
     4.4839   4.4867   4.5138   4.5510   4.5746   4.6122   4.6849   4.7210
     4.7389   4.8440   4.8500   4.9154   4.9217   4.9776   5.0356   5.0364
     5.1193   5.2075   5.2165   5.2896   5.2945   5.4592   5.5008   5.5158
     5.5679   5.6831   5.7078   5.7224   5.8598   5.9263   5.9726   6.0093
     6.0778   6.0798   6.1144   6.1360   6.1778   6.2207   6.2214   6.2367
     6.3155   6.3330   6.3693   6.4285   6.5197   6.5597   6.5642   6.6346
     6.7128   6.7555   6.8335   7.2263  10.1066  10.1292  10.2139  10.2307
    10.2454  10.3206  10.3659  10.3864  10.4449  10.4569  10.5041  10.5209
    10.5400  10.5443  10.5756  10.6531  10.6561  10.6929  10.7342  10.8062
    10.8122  10.8274  10.8637  10.8920  10.9260  10.9470  10.9776  11.0189
    11.0355  11.1273  11.1699  11.2091  11.2884  11.3441  11.3892  11.3893
    11.4649  11.5693

     occupation numbers 
     1.0000   1.0000   1.0000   1.0000   1.0000   1.0000   1.0000   1.0000
     1.0000   1.0000   1.0000   1.0000   1.0000   1.0000   1.0000   1.0000
     1.0000   1.0000   1.0000   1.0000   1.0000   1.0000   1.0000   1.0000
     1.0000   1.0000   1.0000   1.0000   1.0000   1.0000   1.0000   1.0000
     1.0000   1.0000   1.0000   1.0000   1.0000   1.0000   1.0000   1.0000
     1.0000   1.0000   1.0000   1.0000   1.0000   1.0000   1.0000   1.0000
     1.0000   1.0000   1.0000   1.0000   1.0000   1.0000   1.0000   1.0000
     1.0000   1.0000   1.0000   1.0000   1.0000   1.0000   1.0000   1.0000
     1.0000   1.0000   1.0000   1.0000   1.0000   1.0000   1.0000   1.0000
     1.0000   1.0000   1.0000   1.0000   1.0000   1.0000   1.0000   1.0000
     1.0000   1.0000   1.0000   1.0000   1.0000   1.0000   1.0000   1.0000
     1.0000   1.0000   1.0000   1.0000   1.0000   1.0000   1.0000   1.0000
     1.0000   1.0000   1.0000   1.0000   1.0000   1.0000   1.0000   1.0000
     1.0000   1.0000   1.0000   1.0000   1.0000   1.0000   1.0000   1.0000
     1.0000   1.0000   1.0000   1.0000   1.0000   1.0000   1.0000   1.0000
     1.0000   1.0000   1.0000   1.0000   1.0000   1.0000   1.0000   1.0000
     1.0000   1.0000   1.0000   1.0000   1.0000   1.0000   1.0000   1.0000
     1.0000   1.0000   1.0000   1.0000   1.0000   1.0000   1.0000   1.0000
     1.0000   1.0000   1.0000   1.0000   1.0000   1.0000   1.0000   1.0000
     1.0000   1.0000   1.0000   1.0000   1.0000   1.0000   1.0000   1.0000
     1.0000   1.0000   1.0000   1.0000   1.0000   1.0000   1.0000   1.0000
     1.0000   1.0000   1.0000   1.0000   1.0000   1.0000   1.0000   1.0000
     1.0000   1.0000   1.0000   1.0000   1.0000   1.0000   1.0000   1.0000
     1.0000   1.0000   1.0000   0.0000   0.0000   0.0000   0.0000   0.0000
     0.0000   0.0000   0.0000   0.0000   0.0000   0.0000   0.0000   0.0000
     0.0000   0.0000   0.0000   0.0000   0.0000   0.0000   0.0000   0.0000
     0.0000   0.0000   0.0000   0.0000   0.0000   0.0000   0.0000   0.0000
     0.0000   0.0000   0.0000   0.0000   0.0000   0.0000   0.0000   0.0000
     0.0000   0.0000

     the Fermi energy is     7.1440 ev
     (compare with:     7.1329 eV, computed in scf)

     Writing all to output data dir ./Rb_VO.save/ :
     XML data file, pseudopotentials, collected wavefunctions

     init_run     :     79.45s CPU     82.54s WALL (       1 calls)
     electrons    :  24647.26s CPU  24795.81s WALL (       1 calls)

     Called by init_run:
     wfcinit      :     70.59s CPU     72.48s WALL (       1 calls)
     wfcinit:atom :      0.24s CPU      0.32s WALL (      16 calls)
     wfcinit:wfcr :     75.40s CPU     76.73s WALL (      16 calls)
     potinit      :      5.63s CPU      5.89s WALL (       1 calls)
     hinit0       :      0.82s CPU      0.84s WALL (       1 calls)

     Called by electrons:
     c_bands      :  24647.25s CPU  24795.77s WALL (       1 calls)
     v_of_rho     :      0.56s CPU      0.61s WALL (       1 calls)
     v_h          :      0.02s CPU      0.02s WALL (       1 calls)
     v_xc         :      0.54s CPU      0.59s WALL (       1 calls)
     newd         :      2.28s CPU      3.17s WALL (       1 calls)
     PAW_pot      :      4.83s CPU      5.00s WALL (       1 calls)

     Called by c_bands:
     init_us_2    :      1.12s CPU      1.15s WALL (      32 calls)
     ccgdiagg     :  24353.15s CPU  24496.49s WALL (      96 calls)
     wfcrot       :    291.98s CPU    295.97s WALL (      96 calls)

     Called by sum_band:

     Called by *cgdiagg:
     h_psi        :  12663.77s CPU  12753.20s WALL (  264850 calls)
     s_psi        :   4797.82s CPU   4822.12s WALL (  529636 calls)

     Called by h_psi:
     h_psi:calbec :   3112.47s CPU   3149.71s WALL (  264850 calls)
     vloc_psi     :   1174.95s CPU   1201.75s WALL (  264850 calls)
                                        0.00s GPU  (  264850 calls)
     add_vuspsi   :   6865.01s CPU   6881.51s WALL (  264850 calls)
     vhpsi        :   1489.89s CPU   1503.13s WALL (  264850 calls)
     hs_1psi      :  14853.11s CPU  14949.36s WALL (  264754 calls)
     s_1psi       :   5449.71s CPU   5475.89s WALL (  264754 calls)

     General routines
     calbec       :   7233.75s CPU   7300.70s WALL (  794470 calls)
     fft          :      0.48s CPU      0.51s WALL (      23 calls)
     ffts         :      0.15s CPU      0.15s WALL (       2 calls)
     fftw         :    984.83s CPU   1007.98s WALL (  574692 calls)
     interpolate  :      0.18s CPU      0.18s WALL (       2 calls)
     davcio       :      0.27s CPU      2.57s WALL (      81 calls)

     Parallel routines

     Hubbard U routines
     vhpsi        :   1489.89s CPU   1503.13s WALL (  264850 calls)

     PAW routines
     PAW_pot      :      4.83s CPU      5.00s WALL (       1 calls)

     PWSCF        :      6h52m CPU      6h54m WALL


   This run was terminated on:  18:18:48  27May2026            

=------------------------------------------------------------------------------=
   JOB DONE.
=------------------------------------------------------------------------------=
